74
../cyanorenes/verde_crest_run2/AETFKBFYWGEUOV-UHFFFAOYSA/s0_opt_freq_vac/mol_s0_opt_freq_vac.log	Energy: -1520918.9404927
Cl         2.29501        2.02883        0.36918
C          1.04551        0.85873        0.18467
C         -0.28365        1.26647        0.00246
N         -0.62084        2.61844       -0.09990
C         -0.30842        3.45869       -1.17685
C          0.41868        3.17479       -2.32710
C          0.56754        4.19882       -3.25594
C          0.00314        5.46333       -3.04267
C         -0.72889        5.73033       -1.89275
C         -0.89181        4.71971       -0.94515
C         -1.58676        4.64211        0.32034
C         -1.40733        3.33499        0.81208
C         -1.93165        2.92025        2.03060
C         -2.66719        3.84873        2.75841
C         -2.86418        5.15260        2.28551
C         -2.32529        5.55700        1.07078
C         -1.28836        0.28717       -0.10599
C         -2.62465        0.68716       -0.42535
N         -3.70540        1.00700       -0.70818
C         -0.98845       -1.07802        0.01749
N         -1.99987       -2.03990       -0.07820
C         -2.23344       -2.85581       -1.19657
C         -1.45855       -3.02165       -2.33810
C         -1.93402       -3.89600       -3.30946
C         -3.14610       -4.57873       -3.14476
C         -3.91489       -4.39626       -2.00260
C         -3.46039       -3.52327       -1.01461
C         -4.00003       -3.08771        0.25334
C         -3.08633       -2.16588        0.79805
C         -3.29181       -1.55426        2.02916
C         -4.45663       -1.87689        2.71616
C         -5.38074       -2.79013        2.19192
C         -5.15775       -3.40158        0.96482
C          0.34875       -1.46400        0.18641
C          0.69231       -2.84688        0.31244
N          0.97804       -3.96799        0.42084
C          1.36875       -0.50145        0.24435
N          2.70127       -0.91628        0.37251
C          3.40138       -1.08022        1.57032
C          2.91786       -1.05508        2.87273
C          3.83778       -1.25589        3.89594
C          5.19483       -1.47419        3.62224
C          5.66394       -1.49324        2.31474
C          4.76247       -1.29055        1.26937
C          4.89219       -1.23315       -0.16961
C          3.60487       -0.98953       -0.68887
C          3.35709       -0.86401       -2.05103
C          4.44414       -0.99252       -2.90926
C          5.73277       -1.24043       -2.41753
C          5.96435       -1.36303       -1.05280
H          0.85938        2.19394       -2.49767
H          1.13369        4.01173       -4.16494
H          0.13808        6.24140       -3.78951
H         -1.17418        6.71044       -1.73411
H         -1.77768        1.90944        2.40386
H         -3.09693        3.55472        3.71267
H         -3.44489        5.85409        2.87876
H         -2.47525        6.57206        0.70855
H         -0.51364       -2.49762       -2.47187
H         -1.34932       -4.05310       -4.21232
H         -3.48736       -5.25643       -3.92297
H         -4.86049       -4.92064       -1.88085
H         -2.57173       -0.85111        2.44390
H         -4.65116       -1.41185        3.67935
H         -6.28105       -3.02187        2.75494
H         -5.87475       -4.11420        0.56228
H          1.86281       -0.89053        3.08476
H          3.49514       -1.24596        4.92764
H          5.88680       -1.63088        4.44566
H          6.71892       -1.66173        2.10787
H          2.35324       -0.67744       -2.43150
H          4.28916       -0.90160       -3.98151
H          6.56026       -1.33869       -3.11537
H          6.96732       -1.55624       -0.67748
