61
../more_cat/verde_crest_run2/AHCHXZAHCRMOFV-UHFFFAOYSA/s0_opt_freq_vac/mol_s0_opt_freq_vac.log	Energy: -856016.3379703
C          1.88417       -5.00230       -0.03317
O          0.47113       -4.87413       -0.03407
C         -0.05524       -3.64303       -0.03254
C          0.65439       -2.46607       -0.03043
C         -0.02679       -1.21681       -0.03005
C         -1.45253       -1.20106       -0.03054
C         -2.16190       -2.42705       -0.03087
C         -1.47777       -3.60858       -0.03270
N         -2.11649       -0.00191       -0.02654
C         -3.56585       -0.00425        0.00471
C         -4.27061       -0.00556       -1.19262
C         -5.66216       -0.00753       -1.15009
C         -6.32323       -0.00816        0.07643
C         -5.59959       -0.00685        1.26726
C         -4.20822       -0.00490        1.23674
C         -1.45659        1.19947       -0.03031
C         -2.17012        2.42306       -0.03060
C         -1.49001        3.60692       -0.03207
C         -0.06764        3.64624       -0.03148
O          0.45446        4.87921       -0.03266
C          1.86696        5.01225       -0.03159
C          0.64603        2.47172       -0.02941
C         -0.03089        1.22017       -0.02961
C          0.67880        0.00293       -0.02320
C          2.16294        0.00453        0.00178
C          2.88085        0.00270       -1.20590
C          2.17098        0.00340       -2.52866
C          4.27440       -0.00391       -1.15109
C          4.96509       -0.00637        0.06101
C          6.46289        0.01430        0.09477
C          4.22354       -0.00701        1.24334
C          2.82972       -0.00024        1.23920
C          2.06580       -0.00248        2.53155
H          2.31913       -4.54333       -0.93006
H          2.09145       -6.07231       -0.03440
H          2.31777       -4.54562        0.86554
H          1.74047       -2.45192       -0.02908
H         -3.24717       -2.43075       -0.03036
H         -2.00601       -4.55856       -0.03409
H         -3.73304       -0.00498       -2.13898
H         -6.22943       -0.00854       -2.07672
H         -7.40949       -0.00966        0.10443
H         -6.11803       -0.00734        2.22208
H         -3.62205       -0.00380        2.15381
H         -3.25538        2.42316       -0.03037
H         -2.02149        4.55508       -0.03348
H          2.07063        6.08296       -0.03274
H          2.30357        4.55485       -0.92851
H          2.30202        4.55702        0.86717
H          1.73214        2.46098       -0.02773
H          1.52452       -0.87643       -2.64573
H          2.88504       -0.00046       -3.35706
H          1.53173        0.88819       -2.64797
H          4.83684       -0.00950       -2.08518
H          6.83843        1.04318        0.15995
H          6.89232       -0.43160       -0.80802
H          6.85272       -0.52714        0.96293
H          4.74646       -0.01508        2.20018
H          1.42083        0.88119        2.62553
H          2.74536       -0.00622        3.38847
H          1.41684       -0.88373        2.62082
