40
../more/verde_crest_run2/AUXMHONZEQCYGY-UHFFFAOYSA/s0_opt_freq_vac/mol_s0_opt_freq_vac.log	Energy: -696458.8777782
O         -6.45253       -0.76236       -0.00073
C         -5.14227       -0.41643       -0.00060
C         -4.11999       -1.35480       -0.00080
C         -2.80040       -0.91372       -0.00065
C         -2.45765        0.43817       -0.00031
C         -3.52082        1.35667       -0.00009
C         -4.84076        0.95039       -0.00024
C         -1.04406        0.79837       -0.00014
C         -0.61873        2.11015        0.00007
C          0.74644        2.44546        0.00033
C          1.72450        1.40682        0.00041
C          3.09861        1.77127        0.00075
C          3.47770        3.08977        0.00096
C          2.50459        4.11546        0.00086
C          1.17095        3.79927        0.00056
C          1.29780        0.04806        0.00013
C          2.35611       -0.99801        0.00022
C          2.88205       -1.46410        1.20498
C          3.90625       -2.40527        1.20492
C          4.41968       -2.87955        0.00046
C          3.90720       -2.40454       -1.20412
C          2.88300       -1.46335       -1.20442
C         -0.06526       -0.24815       -0.00016
C         -0.50219       -1.66153       -0.00063
O          0.20814       -2.63255       -0.00071
O         -1.85670       -1.89580       -0.00088
H         -6.54489       -1.72223       -0.00099
H         -4.31444       -2.42548       -0.00107
H         -3.30987        2.42284        0.00023
H         -5.65594        1.66812       -0.00006
H         -1.34018        2.92460        0.00005
H          3.85330        0.98886        0.00084
H          4.53351        3.34885        0.00122
H          2.81820        5.15671        0.00103
H          0.41356        4.58154        0.00049
H          2.47448       -1.09302        2.14450
H          4.30394       -2.77008        2.14916
H          5.21881       -3.61701        0.00054
H          4.30564       -2.76876       -2.14827
H          2.47619       -1.09169       -2.14403
