57
../more/verde_crest_run2/AXDOUOGXCFRZQE-UHFFFAOYSA/s0_opt_freq_vac/mol_s0_opt_freq_vac.log	Energy: -831587.2466829
C          2.50160        1.74742       -0.75996
N          1.42478        0.96062       -0.17078
C          1.40082       -0.42871       -0.18812
C          0.04893       -0.87304       -0.16240
C         -0.76811        0.32483       -0.20500
C         -2.16844        0.58493       -0.44667
C         -3.05731       -0.40613       -0.90970
C         -4.38190       -0.12660       -1.17391
C         -4.86802        1.17394       -1.00141
C         -4.00423        2.17471       -0.60565
C         -2.64491        1.92131       -0.33505
C         -1.72949        2.99993        0.01499
C         -2.18040        4.30504        0.29150
C         -1.31081        5.32037        0.63578
C          0.06060        5.05985        0.73893
C          0.53669        3.79219        0.47622
C         -0.33247        2.74927        0.09118
C          0.10680        1.40031       -0.12240
C         -0.20574       -2.26061       -0.05368
C          0.87709       -3.13054       -0.17278
C          2.18885       -2.66944       -0.27161
C          2.49347       -1.31028       -0.21722
C          3.90887       -0.89390       -0.08749
C          4.86543       -1.31312       -1.01814
C          6.20335       -0.95765       -0.87222
C          6.60738       -0.18230        0.21155
C          5.66516        0.22953        1.15194
C          4.32842       -0.12399        1.00410
C         -1.51568       -2.83713        0.31773
C         -2.06682       -3.90574       -0.39758
C         -3.29598       -4.44582       -0.03065
C         -3.98391       -3.93681        1.06850
C         -3.43105       -2.88929        1.80197
C         -2.20827       -2.34419        1.42928
H          2.07330        2.57212       -1.33571
H          3.07856        1.11932       -1.44388
H          3.19279        2.14899       -0.00931
H         -2.68831       -1.40852       -1.09109
H         -5.03672       -0.91908       -1.52960
H         -5.91045        1.40551       -1.20657
H         -4.38872        3.18798       -0.53174
H         -3.24317        4.52589        0.25696
H         -1.69702        6.31438        0.84793
H          0.74782        5.84516        1.04414
H          1.59485        3.59111        0.60987
H          0.69702       -4.20041       -0.08529
H          3.00921       -3.38518       -0.28177
H          4.54728       -1.91041       -1.87157
H          6.93210       -1.28471       -1.61050
H          7.65230        0.09594        0.32617
H          5.97480        0.82237        2.00988
H          3.59397        0.18722        1.74617
H         -1.53836       -4.29129       -1.26847
H         -3.71967       -5.26456       -0.60815
H         -4.94538       -4.35707        1.35411
H         -3.95814       -2.49081        2.66578
H         -1.78126       -1.51841        1.99603
