26
../more/verde_crest_run2/BIOPPFDHKHWJIA-UHFFFAOYSA/s0_opt_freq_vac/mol_s0_opt_freq_vac.log	Energy: -454011.6038986
N         -0.00009       -3.98986       -0.00026
C         -0.00002       -2.82585        0.00005
C         -0.00001       -1.39756        0.00003
C         -1.23391       -0.71650        0.00025
C         -2.47979       -1.40415        0.00049
C         -3.65688       -0.70961        0.00071
C         -3.65686        0.70967        0.00070
C         -2.47976        1.40420        0.00047
C         -1.23389        0.71653        0.00024
C          0.00002        1.39756        0.00001
C          0.00003        2.82585       -0.00000
N          0.00003        3.98986       -0.00001
C          1.23392        0.71650       -0.00022
C          1.23390       -0.71653       -0.00021
C          2.47977       -1.40420       -0.00044
C          3.65687       -0.70967       -0.00066
C          3.65688        0.70961       -0.00067
C          2.47980        1.40415       -0.00045
H         -2.47926       -2.49206        0.00050
H         -4.60176       -1.24657        0.00089
H         -4.60174        1.24666        0.00087
H         -2.47921        2.49211        0.00047
H          2.47922       -2.49211       -0.00043
H          4.60175       -1.24666       -0.00083
H          4.60177        1.24658       -0.00085
H          2.47926        2.49206       -0.00046
