94
../cyanorenes/verde_crest_run2/BOVXHAAASRNSKD-YCCRIOLWSA/s0_opt_freq_vac/mol_s0_opt_freq_vac.log
N         -1.92113        5.15874       -0.46559
C         -1.37028        4.15341       -0.31064
C         -0.68910        2.91593       -0.13217
C         -1.39302        1.70480       -0.24399
N         -2.77308        1.76496       -0.53326
C         -3.73566        2.00473        0.48897
C         -3.59684        2.72329        1.67010
C         -4.72648        2.84550        2.47736
C         -5.94727        2.26591        2.11862
C         -6.08328        1.54342        0.93313
C         -4.97619        1.40617        0.11110
C         -4.75811        0.72561       -1.15009
C         -3.39379        0.93568       -1.51139
C         -2.86180        0.43908       -2.69487
C         -3.70579       -0.32149       -3.50153
C         -5.03620       -0.56241       -3.14357
C         -5.57653       -0.03335       -1.97204
C         -0.69938        0.47536       -0.10275
N         -1.40034       -0.73585       -0.18044
C         -2.34380       -1.19434        0.76422
C         -2.80137       -0.58379        1.92801
C         -3.75556       -1.27007        2.67234
C         -4.22616       -2.52783        2.27711
C         -3.74441       -3.15036        1.12785
C         -2.79116       -2.49237        0.36500
C         -2.07260       -2.84030       -0.84154
C         -1.21363       -1.74131       -1.15449
C         -0.39507       -1.74372       -2.27988
C         -0.41609       -2.88258       -3.07810
C         -1.24065       -3.97313       -2.77561
C         -2.07750       -3.95858       -1.66239
C          0.69939        0.47541        0.10270
N          1.40043       -0.73575        0.18045
C          1.21378       -1.74119        1.15453
C          0.39524       -1.74358        2.27993
C          0.41633       -2.88241        3.07821
C          1.24094       -3.97293        2.77574
C          2.07776       -3.95839        1.66250
C          2.07279       -2.84015        0.84161
C          2.79130       -2.49224       -0.36497
C          2.34388       -1.19424       -0.76423
C          2.80140       -0.58371       -1.92805
C          3.75558       -1.26999       -2.67239
C          4.22624       -2.52771       -2.27712
C          3.74456       -3.15022       -1.12782
C          1.39295        1.70489        0.24393
N          2.77300        1.76515        0.53326
C          3.39369        0.93587        1.51142
C          2.86169        0.43936        2.69492
C          3.70566       -0.32120        3.50162
C          5.03605       -0.56221        3.14366
C          5.57639       -0.03323        1.97209
C          4.75799        0.72572        1.15011
C          4.97610        1.40622       -0.11110
C          3.73560        2.00481       -0.48900
C          3.59681        2.72335       -1.67014
C          4.72645        2.84547       -2.47741
C          5.94721        2.26584       -2.11865
C          6.08320        1.54339       -0.93315
C          0.68897        2.91598        0.13207
C          1.37007        4.15350        0.31055
N          1.92077        5.15894        0.46527
H         -2.65459        3.18207        1.95258
H         -4.65591        3.40709        3.40854
H         -6.80645        2.38233        2.77545
H         -7.03416        1.09316        0.65771
H         -1.82885        0.62235       -2.97507
H         -3.31706       -0.74459       -4.42765
H         -5.65996       -1.17313       -3.79279
H         -6.61473       -0.21274       -1.70333
H         -2.44270        0.39219        2.24006
H         -4.14776       -0.81621        3.58195
H         -4.97909       -3.02718        2.88184
H         -4.10295       -4.13303        0.83055
H          0.24596       -0.90105       -2.51990
H          0.22731       -2.92793       -3.95635
H         -1.22500       -4.84635       -3.42309
H         -2.72254       -4.80374       -1.43486
H         -0.24582       -0.90093        2.51993
H         -0.22705       -2.92776        3.95647
H          1.22534       -4.84613        3.42326
H          2.72284       -4.80354        1.43499
H          2.44268        0.39224       -2.24012
H          4.14773       -0.81615       -3.58203
H          4.97918       -3.02706       -2.88186
H          4.10315       -4.13286       -0.83049
H          1.82875        0.62270        2.97513
H          3.31691       -0.74423        4.42777
H          5.65978       -1.17293        3.79290
H          6.61458       -0.21269        1.70338
H          2.65458        3.18217       -1.95263
H          4.65590        3.40704       -3.40861
H          6.80640        2.38220       -2.77549
H          7.03405        1.09309       -0.65771
