67
../more/verde_crest_run2/DFZHVIDVATZRNR-ZILOHOTNSA/s0_opt_freq_vac/mol_s0_opt_freq_vac.log	Energy: -1217272.9862244
C          4.21968       -0.65006        1.36709
C          3.80480        0.74646        1.69450
O          3.92309        1.28942        2.77094
O          3.25207        1.37186        0.62931
C          2.86674        2.73806        0.81939
C          2.12242        3.20905       -0.40967
C          0.65550        2.81090       -0.49324
O          0.10828        3.62258       -1.55476
C         -1.19695        3.94451       -1.46964
C         -1.62865        4.75302       -2.65002
O         -1.91157        3.59833       -0.55448
C          0.32653        1.35827       -0.83265
O          1.19186        0.94663       -1.88883
C          0.71618        0.03879       -2.77958
C          1.80830       -0.42866       -3.67938
O         -0.43372       -0.33288       -2.79001
C          0.49365        0.35124        0.31559
O          0.28428        0.98820        1.56556
C          0.76494        0.32165        2.65969
C          0.65049        1.14911        3.89360
O          1.25426       -0.77573        2.58170
N         -0.39508       -0.80942        0.17028
C         -1.76429       -0.72362        0.39744
C         -2.51667       -1.92016        0.33596
C         -3.90562       -1.87708        0.55408
C         -4.56554       -0.69492        0.81158
C         -6.04743       -0.67288        1.02891
C         -3.80620        0.50395        0.86114
C         -4.48262        1.81319        1.12094
C         -2.43058        0.47705        0.67076
N         -1.94139       -3.12666        0.07197
C         -0.67413       -3.16308       -0.19026
C         -0.03894       -4.47696       -0.49914
O         -0.60767       -5.54587       -0.45136
N          1.28882       -4.35328       -0.85837
C          2.03464       -3.16921       -0.98045
O          3.17659       -3.22462       -1.39921
N          1.42939       -1.98853       -0.62037
C          0.18517       -1.99429       -0.22637
H          3.78482       -1.32106        2.11373
H          5.30914       -0.72141        1.44715
H          3.90223       -0.95670        0.36664
H          3.77320        3.33449        0.97723
H          2.25686        2.82705        1.72893
H          2.65272        2.88676       -1.31350
H          2.13633        4.30609       -0.40489
H          0.13519        3.07100        0.43641
H         -0.91803        5.56024       -2.84725
H         -2.62766        5.15379       -2.47499
H         -1.64634        4.11083       -3.53709
H         -0.70766        1.32608       -1.19745
H          2.47174       -1.07992       -3.09483
H          2.40637        0.41241       -4.04051
H          1.38586       -0.99072       -4.51318
H          1.50572       -0.05387        0.27009
H          0.48878        0.49724        4.75405
H         -0.13918        1.89917        3.81515
H          1.61543        1.65432        4.03443
H         -4.43772       -2.82512        0.50201
H         -6.55842       -0.06033        0.27489
H         -6.30826       -0.25145        2.00821
H         -6.46546       -1.68247        0.97707
H         -3.77792        2.64649        1.05479
H         -4.95136        1.82788        2.11409
H         -5.28524        1.99447        0.39486
H         -1.89520        1.41936        0.72563
H          1.77367       -5.20901       -1.10871
