90
../dihydroacridine/verde_crest_run2/DXQKUJPYGNQPJL-UHFFFAOYSA/s0_opt_freq_vac/mol_s0_opt_freq_vac.log	Energy: -1357438.1751367
C          5.87343       -9.00723        0.74838
N          4.73699       -8.78671       -0.11525
C          4.04904       -9.93830       -0.65131
C          4.07472       -7.57047       -0.05983
C          4.60122       -6.47929        0.65806
C          3.94600       -5.25667        0.68272
C          2.73756       -5.04697        0.00888
C          2.21165       -6.13854       -0.69120
C          2.85044       -7.36927       -0.72633
C          2.04743       -3.74473        0.03841
C          2.75938       -2.54286        0.05274
C          2.15609       -1.28568        0.07940
C          0.75328       -1.22811        0.09052
C          0.01717       -2.42360        0.07260
C          0.65194       -3.65322        0.04927
N          0.08696        0.00409        0.12091
C         -1.33804        0.02388        0.09118
C         -2.06307        0.01651        1.27961
C         -3.45223        0.03307        1.24634
C         -4.14067        0.05626        0.02693
C         -3.39665        0.06517       -1.16018
C         -2.00823        0.04945       -1.12938
C         -5.61763        0.06876       -0.00640
C         -6.35086        0.80293        0.93644
C         -7.73656        0.81286        0.90784
C         -8.41704        0.08644       -0.06890
C         -7.70768       -0.64747       -1.01330
C         -6.31825       -0.65335       -0.97832
C         -9.91317        0.11713       -0.06306
F        -10.38354        1.37255       -0.17657
F        -10.44931       -0.59824       -1.06010
F        -10.41384       -0.36858        1.08800
C          0.78780        1.21684        0.09703
C          0.08634        2.43309        0.09901
C          0.75578        3.64404        0.06946
C          2.15311        3.69557        0.04303
C          2.83070        2.47398        0.05042
C          2.19172        1.23442        0.07251
C          3.03238       -0.03776        0.09513
C          3.95411       -0.05325       -1.13696
C          3.88656       -0.04840        1.37552
C          2.88014        4.97727        0.00622
C          2.40706        6.10877        0.68006
C          3.07893        7.32191        0.64529
C          4.28396        7.46370       -0.06959
C          4.75818        6.33115       -0.75928
C          4.07075        5.12701       -0.71368
N          4.97657        8.66410       -0.08715
C          4.33476        9.85198        0.42644
C          6.08378        8.82280       -1.00093
H          5.61734       -8.93804        1.81944
H          6.67195       -8.28263        0.54339
H          6.28205      -10.00263        0.55824
H          3.13116      -10.18614       -0.09162
H          4.71512      -10.80372       -0.61557
H          3.77379       -9.78310       -1.70245
H          5.52672       -6.58237        1.21667
H          4.37596       -4.44846        1.27302
H          1.28273       -6.01893       -1.24712
H          2.39293       -8.17409       -1.29382
H          3.84712       -2.59528        0.01629
H         -1.06873       -2.39005        0.09087
H          0.04888       -4.55930        0.06585
H         -1.52438       -0.01254        2.22485
H         -4.01215       -0.00105        2.17897
H         -3.91237        0.11324       -2.11735
H         -1.42650        0.06634       -2.04919
H         -5.82496        1.39351        1.68358
H         -8.29754        1.39305        1.63755
H         -8.23856       -1.21972       -1.76864
H         -5.76848       -1.25089       -1.70240
H         -1.00015        2.43091        0.10937
H          0.17822        4.56626        0.03945
H          3.91994        2.49652        0.06433
H          3.36288       -0.04654       -2.06036
H          4.59065       -0.94543       -1.14719
H          4.61488        0.82139       -1.14901
H          4.54507        0.82721        1.42032
H          4.51782       -0.94412        1.42073
H          3.24604       -0.03814        2.26562
H          1.49377        6.03623        1.26913
H          2.66232        8.16109        1.19436
H          5.66669        6.38732       -1.35143
H          4.45883        4.28485       -1.28529
H          5.01717       10.69983        0.32988
H          4.09695        9.74565        1.49278
H          3.40134       10.09766       -0.10791
H          6.87653        8.09280       -0.79284
H          6.51723        9.81745       -0.87157
H          5.78626        8.71086       -2.05755
