71
../more/verde_crest_run2/FKGOHYWXWZUXFT-UHFFFAOYSA/s0_opt_freq_vac/mol_s0_opt_freq_vac.log	Energy: -1165649.9364373
O         -5.42289        2.44052        0.76262
C         -4.92252        1.39515        0.44054
O         -3.55106        1.34926        0.42738
C         -2.82492        0.24630        0.08636
C         -3.43780       -0.95326       -0.28223
C         -2.59207       -2.02419       -0.61494
C         -1.21761       -1.90043       -0.57930
C         -0.62226       -0.68050       -0.20311
C         -1.44590        0.39667        0.13075
C          0.79239       -0.54829       -0.16413
C          2.00280       -0.44178       -0.13283
C          3.41850       -0.31167       -0.09494
C          4.24533       -1.39081       -0.44572
C          5.62519       -1.26063       -0.41791
C          6.20742       -0.05408       -0.02165
C          5.39428        1.02348        0.33799
C          4.01428        0.89898        0.29347
N          7.61224        0.07579        0.01449
C          8.49292       -0.76377        0.69782
C          8.21537       -1.85905        1.51330
C          9.29190       -2.51245        2.10169
C         10.61085       -2.08622        1.89126
C         10.87714       -0.98367        1.09042
C          9.81336       -0.31078        0.48821
C          9.72735        0.85369       -0.35966
C          8.35803        1.06296       -0.63126
C          7.92549        2.09487       -1.46182
C          8.89280        2.93417       -2.00212
C         10.25589        2.75067       -1.73025
C         10.67926        1.70983       -0.91459
C         -4.89562       -1.01396       -0.29779
C         -5.57675       -2.16096       -0.64554
C         -6.98166       -2.21063       -0.65910
C         -7.72762       -1.04723       -0.30612
C         -9.14663       -1.12170       -0.32872
C         -9.78502       -2.28437       -0.68050
C         -9.04102       -3.43478       -1.02898
C         -7.67087       -3.39718       -1.01823
C         -7.03411        0.14417        0.05533
C         -7.85839        1.33064        0.41167
C         -8.27142        2.21970       -0.58034
C         -9.08124        3.30335       -0.25683
C         -9.49284        3.49992        1.05890
C         -9.09502        2.60482        2.04874
C         -8.28524        1.52099        1.72570
C         -5.64005        0.15690        0.05976
H         -3.02059       -2.97833       -0.90956
H         -0.58218       -2.74213       -0.84099
H         -1.02898        1.35534        0.42598
H          3.78995       -2.32822       -0.75533
H          6.26463       -2.08838       -0.71611
H          5.85518        1.95297        0.66450
H          3.37940        1.73563        0.57420
H          7.19462       -2.18821        1.69268
H          9.10360       -3.37092        2.74220
H         11.42940       -2.62142        2.36589
H         11.89975       -0.64392        0.93678
H          6.87139        2.23685       -1.68809
H          8.58266        3.74857       -2.65262
H         10.98569        3.42697       -2.16815
H         11.73814        1.55884       -0.71279
H         -5.03595       -3.06400       -0.92021
H         -9.72650       -0.24167       -0.06234
H        -10.87141       -2.32214       -0.69174
H         -9.55977       -4.34948       -1.30577
H         -7.08769       -4.27705       -1.28512
H         -7.94304        2.06433       -1.60725
H         -9.39031        3.99730       -1.03507
H        -10.12357        4.34864        1.31237
H         -9.41485        2.75149        3.07779
H         -7.96755        0.82106        2.49750
