52
../more/verde_crest_run2/FYMIFJSRDQISIZ-UHFFFAOYSA/s0_opt_freq_vac/mol_s0_opt_freq_vac.log	Energy: -899758.1625389
O         -2.49900       -2.55690       -0.00006
C         -1.95584       -1.48411       -0.00038
O         -0.58228       -1.49218       -0.00029
C          0.18942       -0.36874       -0.00016
C         -0.37139        0.91069       -0.00010
C          0.51856        1.99725        0.00004
C          1.88667        1.81309        0.00009
C          2.42842        0.51327        0.00002
C          1.56116       -0.58112       -0.00010
C          3.83664        0.32058        0.00007
C          5.04251        0.16921        0.00010
C          6.45326       -0.00194        0.00013
C          7.30226        1.11748        0.00063
C          8.67703        0.95580        0.00064
C          9.22905       -0.33172        0.00016
C          8.39051       -1.45388       -0.00034
C          7.01581       -1.28938       -0.00035
C         10.64961       -0.50009        0.00017
N         11.80499       -0.63623        0.00018
C         -1.82568        1.03240       -0.00013
C         -2.45651        2.25807       -0.00006
C         -3.85821        2.36743        0.00000
C         -4.65300        1.18328        0.00000
C         -6.06744        1.31899        0.00008
C         -6.65552        2.55902        0.00016
C         -5.86312        3.72961        0.00015
C         -4.49557        3.63435        0.00008
C         -4.01166       -0.08960       -0.00009
C         -4.88698       -1.29292       -0.00009
C         -5.33059       -1.83741       -1.20505
C         -6.18869       -2.93211       -1.20470
C         -6.61775       -3.48347       -0.00009
C         -6.18843       -2.93231        1.20452
C         -5.33033       -1.83760        1.20487
C         -2.61928       -0.16059       -0.00018
H          0.13057        3.01218        0.00012
H          2.55728        2.66802        0.00020
H          1.93722       -1.60023       -0.00016
H          6.86633        2.11293        0.00100
H          9.33496        1.82075        0.00103
H          8.82727       -2.44898       -0.00071
H          6.35879       -2.15496       -0.00073
H         -1.87759        3.17897       -0.00003
H         -6.68470        0.42428        0.00009
H         -7.73935        2.64279        0.00022
H         -6.34232        4.70565        0.00021
H         -3.87528        4.52917        0.00008
H         -4.98887       -1.40540       -2.14477
H         -6.52208       -3.35664       -2.14878
H         -7.28672       -4.34070       -0.00009
H         -6.52163       -3.35698        2.14861
H         -4.98842       -1.40575        2.14459
