56
../more/verde_crest_run2/HNUKSYFYOOLKML-UHFFFAOYSA/s0_opt_freq_vac/mol_s0_opt_freq_vac.log	Energy: -909099.2212242
C         -7.76404       -0.56375       -0.79290
O         -6.95062       -0.60122        0.35741
C         -5.60489       -0.59311        0.18974
C         -4.84803       -0.61876        1.36673
C         -3.46582       -0.61113        1.29974
C         -2.82606       -0.58373        0.06138
C         -3.57416       -0.55572       -1.10494
C         -4.96707       -0.56214       -1.05175
N         -1.39519       -0.59463        0.00106
C         -0.70429       -1.82082       -0.00199
C          0.70429       -1.82082       -0.00199
C          1.38714       -3.03537       -0.00662
C          0.69349       -4.24362       -0.01018
C         -0.69349       -4.24362       -0.01018
C         -1.38715       -3.03537       -0.00662
N          1.39519       -0.59463        0.00106
C          2.82606       -0.58373        0.06138
C          3.57416       -0.55572       -1.10494
C          4.96707       -0.56214       -1.05175
C          5.60489       -0.59312        0.18974
O          6.95062       -0.60122        0.35741
C          7.76404       -0.56375       -0.79290
C          4.84803       -0.61877        1.36673
C          3.46581       -0.61114        1.29974
C          0.72540        0.61980       -0.00037
N          1.40622        1.72595        0.00367
C          0.70755        2.90671        0.00560
C         -0.70755        2.90671        0.00560
C         -1.40095        4.12873        0.00975
C         -0.70287        5.32115        0.01284
C          0.70288        5.32114        0.01284
C          1.40096        4.12873        0.00975
N         -1.40622        1.72595        0.00367
C         -0.72540        0.61980       -0.00037
H         -8.79646       -0.57116       -0.43913
H         -7.59638       -1.44156       -1.43262
H         -7.59020        0.34992       -1.37818
H         -5.37174       -0.63927        2.31878
H         -2.86579       -0.62688        2.20748
H         -3.06108       -0.52616       -2.06411
H         -5.53569       -0.53811       -1.97633
H          2.47366       -3.03151       -0.00568
H          1.24827       -5.17808       -0.01237
H         -1.24827       -5.17808       -0.01237
H         -2.47367       -3.03151       -0.00568
H          3.06108       -0.52615       -2.06411
H          5.53569       -0.53811       -1.97633
H          8.79646       -0.57116       -0.43913
H          7.59020        0.34992       -1.37818
H          7.59638       -1.44155       -1.43263
H          5.37174       -0.63928        2.31878
H          2.86579       -0.62689        2.20748
H         -2.48825        4.09885        0.01127
H         -1.24282        6.26516        0.01625
H          1.24282        6.26516        0.01625
H          2.48825        4.09884        0.01127
