56
../dihydrophena/verde_crest_run2/HPIOBCHPZVAATK-UHFFFAOYSA/s0_opt_freq_vac/mol_s0_opt_freq_vac.log	Energy: -841640.3760428
C          7.83626       -0.00002        0.06375
C          6.96298        0.00008       -0.99609
C          5.56293        0.00008       -0.78156
C          4.63683        0.00018       -1.85520
C          3.28604        0.00017       -1.61758
C          2.80004        0.00007       -0.28862
C          3.67028       -0.00002        0.77253
C          5.07033       -0.00002        0.55690
C          5.99541       -0.00011        1.62988
C          7.34758       -0.00012        1.38982
N          1.39222        0.00003       -0.06723
C          0.70443       -1.22646       -0.03957
C         -0.70414       -1.22646        0.04118
C         -1.38138       -2.44153        0.08936
C         -0.68979       -3.65482        0.05145
C          0.69084       -3.65483       -0.03728
C          1.38209       -2.44155       -0.08124
N         -1.39261       -0.00003        0.06019
C         -2.80029       -0.00007        0.28282
C         -3.28564       -0.00022        1.61210
C         -4.63626       -0.00024        1.85040
C         -5.56294       -0.00011        0.77720
C         -6.96286       -0.00011        0.99243
C         -7.83668        0.00002       -0.06698
C         -7.34866        0.00016       -1.39327
C         -5.99660        0.00017       -1.63400
C         -5.07102        0.00004       -0.56148
C         -3.67102        0.00004       -0.77784
C         -0.70419        1.22643        0.04126
C          0.70438        1.22649       -0.03949
C          1.38200        2.44161       -0.08107
C          0.69071        3.65486       -0.03701
C         -0.68992        3.65479        0.05173
C         -1.38147        2.44148        0.08956
H          8.90899       -0.00002       -0.11402
H          7.33401        0.00015       -2.02000
H          5.01800        0.00026       -2.87530
H          2.56577        0.00024       -2.43359
H          3.27603       -0.00010        1.78853
H          5.61256       -0.00019        2.64932
H          8.04822       -0.00019        2.22136
H         -2.46634       -2.44232        0.15267
H         -1.24571       -4.58796        0.08958
H          1.24703       -4.58799       -0.07085
H          2.46702       -2.44232       -0.14485
H         -2.56500       -0.00032        2.42782
H         -5.01692       -0.00035        2.87069
H         -7.33339       -0.00022        2.01652
H         -8.90933        0.00002        0.11133
H         -8.04971        0.00027       -2.22448
H         -5.61424        0.00028       -2.65363
H         -3.27723        0.00016       -1.79399
H          2.46693        2.44242       -0.14467
H          1.24687        4.58804       -0.07051
H         -1.24588        4.58792        0.08995
H         -2.46642        2.44223        0.15289
