37
../more/verde_crest_run2/HQVILJYRUYIXDZ-UHFFFAOYSA/s0_opt_freq_vac/mol_s0_opt_freq_vac.log	Energy: -718380.5674573
O          1.02527       -0.08075        2.21028
C          2.32213       -0.17585        1.87199
O          3.20637       -0.10943        2.69694
C          2.55913       -0.37311        0.41614
C          3.89330       -0.58224        0.04835
C          4.24767       -0.79024       -1.27593
C          3.26020       -0.79017       -2.25706
C          1.93206       -0.58001       -1.90423
C          1.55823       -0.37139       -0.57332
C          0.11232       -0.13018       -0.32362
C         -0.77461       -1.16922       -0.22102
C         -0.38753       -2.55953       -0.24350
C         -1.29746       -3.54829       -0.12330
C         -2.73537       -3.27424        0.03818
O         -3.55383       -4.18972        0.13956
C         -3.11659       -1.87196        0.07319
C         -2.18511       -0.89626       -0.04521
O         -2.61443        0.40116        0.00519
C         -1.75216        1.43588       -0.10578
C         -0.37125        1.22384       -0.27869
C          0.44863        2.35909       -0.38902
C         -0.07667        3.63524       -0.32779
C         -1.45804        3.80716       -0.15320
O         -2.02967        5.03042       -0.08657
C         -2.30104        2.70811       -0.04339
H          0.99910        0.03773        3.17328
H          4.64168       -0.57995        0.83651
H          5.28845       -0.95451       -1.54167
H          3.52092       -0.95503       -3.29961
H          1.15617       -0.57769       -2.66802
H          0.66998       -2.79158       -0.35865
H         -1.00913       -4.59657       -0.13754
H         -4.16663       -1.62488        0.20027
H          1.51986        2.22613       -0.52684
H          0.57390        4.50379       -0.41473
H         -1.36041        5.71957       -0.17229
H         -3.37048        2.83965        0.08926
