14
../more/verde_crest_run2/HZNVUJQVZSTENZ-UHFFFAOYSA/s0_opt_freq_vac/mol_s0_opt_freq_vac.log	Energy: -931672.9869538
Cl        -2.58469       -1.60603       -0.00001
C         -1.15471       -0.67646       -0.00001
C         -1.15471        0.67646        0.00002
Cl        -2.58469        1.60603        0.00001
C          0.11511        1.45541        0.00008
O          0.13679        2.66405       -0.00007
C          1.39426        0.67659        0.00001
C          2.59973        1.43733       -0.00000
N          3.58846        2.04735       -0.00000
C          1.39426       -0.67659       -0.00002
C          2.59973       -1.43733       -0.00002
N          3.58846       -2.04735       -0.00004
C          0.11511       -1.45541       -0.00007
O          0.13679       -2.66405        0.00009
