79
../more/verde_crest_run2/IGGSSEOAGCUGDJ-UHFFFAOYSA/s0_opt_freq_vac/mol_s0_opt_freq_vac.log	Energy: -1192427.3433332
O          0.00001       -0.53538       -0.56353
C          1.17883        0.16926       -0.52235
C          1.20717        1.56456       -0.65422
C          2.44904        2.19683       -0.62142
C          3.62056        1.46145       -0.46710
C          3.59210        0.07179       -0.33455
C          2.34065       -0.55989       -0.36246
C          4.83139       -0.71185       -0.17790
C          4.96164       -1.98494       -0.74692
C          6.13128       -2.71843       -0.60564
C          7.22253       -2.21145        0.11001
C          7.09182       -0.94010        0.68166
C          5.92168       -0.20694        0.54181
C          8.46831       -2.99101        0.25384
C          9.19789       -2.97068        1.44939
C         10.37097       -3.70536        1.58270
C         10.83950       -4.47746        0.52268
C         10.12413       -4.50707       -0.67183
C          8.95189       -3.77120       -0.80415
N          0.00000        2.26041       -0.81967
C         -1.20716        1.56455       -0.65423
C         -1.17881        0.16926       -0.52235
C         -2.34064       -0.55990       -0.36247
C         -3.59209        0.07178       -0.33456
C         -3.62055        1.46144       -0.46710
C         -2.44903        2.19683       -0.62143
C         -4.83137       -0.71186       -0.17791
C         -5.92166       -0.20695        0.54180
C         -7.09180       -0.94012        0.68166
C         -7.22250       -2.21147        0.11000
C         -6.13126       -2.71845       -0.60564
C         -4.96162       -1.98496       -0.74693
C         -8.46829       -2.99103        0.25384
C         -8.95186       -3.77123       -0.80415
C        -10.12411       -4.50710       -0.67183
C        -10.83948       -4.47750        0.52267
C        -10.37095       -3.70539        1.58269
C         -9.19786       -2.97070        1.44938
C         -0.00000        3.68500       -0.88345
C         -0.00003        4.44585        0.31985
C         -0.00006        3.84501        1.60255
C         -0.00008        4.62145        2.73526
C         -0.00008        6.03097        2.63934
C         -0.00006        6.63875        1.40864
C         -0.00003        5.86838        0.21935
C         -0.00001        6.47419       -1.06180
C          0.00001        5.71128       -2.20293
C          0.00001        4.30278       -2.11040
H          2.49870        3.27739       -0.73306
H          4.57445        1.98404       -0.47970
H          2.24820       -1.63662       -0.23762
H          4.13848       -2.39994       -1.32595
H          6.19500       -3.71214       -1.04572
H          7.92835       -0.51176        1.23126
H          5.84459        0.77086        1.01406
H          8.82463       -2.39249        2.29298
H         10.91669       -3.68242        2.52335
H         11.75643       -5.05263        0.62691
H         10.48583       -5.09915       -1.50955
H          8.41456       -3.77854       -1.75091
H         -2.24818       -1.63663       -0.23763
H         -4.57444        1.98403       -0.47970
H         -2.49869        3.27738       -0.73306
H         -5.84457        0.77084        1.01405
H         -7.92833       -0.51178        1.23126
H         -6.19498       -3.71216       -1.04573
H         -4.13846       -2.39995       -1.32596
H         -8.41454       -3.77856       -1.75092
H        -10.48581       -5.09918       -1.50956
H        -11.75640       -5.05266        0.62691
H        -10.91666       -3.68245        2.52334
H         -8.82461       -2.39252        2.29297
H         -0.00006        2.75946        1.67880
H         -0.00010        4.14896        3.71445
H         -0.00010        6.63246        3.54509
H         -0.00006        7.72459        1.32587
H         -0.00002        7.56141       -1.12362
H          0.00002        6.18526       -3.18110
H          0.00003        3.68486       -3.00601
