48
../more/verde_crest_run2/JYICLZOZCDLRKZ-UHFFFAOYSA/s0_opt_freq_vac/mol_s0_opt_freq_vac.log	Energy: -765438.6655511
C         -5.59539       -0.69046        0.15690
C         -4.84519       -0.75476        1.32893
C         -3.45526       -0.74472        1.26640
C         -2.82515       -0.67395        0.02917
C         -3.56657       -0.60549       -1.14491
C         -4.95632       -0.61485       -1.07881
N         -1.39302       -0.68549       -0.03107
C         -0.70425       -1.91177       -0.07719
C          0.70425       -1.91177       -0.07719
C          1.38744       -3.12511       -0.12279
C          0.69346       -4.33248       -0.16588
C         -0.69346       -4.33248       -0.16588
C         -1.38744       -3.12511       -0.12280
N          1.39302       -0.68549       -0.03107
C          2.82515       -0.67395        0.02917
C          3.56657       -0.60550       -1.14491
C          4.95632       -0.61486       -1.07881
C          5.59539       -0.69046        0.15690
C          4.84519       -0.75475        1.32893
C          3.45526       -0.74471        1.26640
C          0.72500        0.52966       -0.04139
N          1.40637        1.63512       -0.03778
C          0.70761        2.81611       -0.03652
C         -0.70761        2.81611       -0.03652
C         -1.40115        4.03796       -0.03354
C         -0.70288        5.23018       -0.03192
C          0.70288        5.23018       -0.03192
C          1.40115        4.03796       -0.03354
N         -1.40637        1.63512       -0.03778
C         -0.72500        0.52966       -0.04139
H         -6.68160       -0.69761        0.20659
H         -5.34314       -0.81014        2.29388
H         -2.84837       -0.79265        2.16838
H         -3.04583       -0.54215       -2.09821
H         -5.54158       -0.56035       -1.99348
H          2.47402       -3.12248       -0.12329
H          1.24812       -5.26632       -0.19960
H         -1.24812       -5.26632       -0.19961
H         -2.47402       -3.12248       -0.12330
H          3.04583       -0.54217       -2.09821
H          5.54158       -0.56036       -1.99349
H          6.68160       -0.69761        0.20659
H          5.34314       -0.81012        2.29388
H          2.84837       -0.79263        2.16838
H         -2.48842        4.00823       -0.03270
H         -1.24274        6.17420       -0.03023
H          1.24274        6.17420       -0.03023
H          2.48842        4.00823       -0.03270
