50
../dihydrophena/verde_crest_run2/KGCIHVDTVLIHTB-UHFFFAOYSA/s0_opt_freq_vac/mol_s0_opt_freq_vac.log	Energy: -1071841.5259195
F         -7.51123       -1.07451       -0.75122
C         -7.07143        0.00045       -0.07365
F         -7.51016        1.07854       -0.74702
F         -7.68462       -0.00150        1.11588
C         -5.57766       -0.00043        0.04552
C         -4.82565       -0.00135       -1.13118
C         -3.44117       -0.00150       -1.06062
C         -2.80918       -0.00077        0.18454
C         -3.56061        0.00007        1.35361
C         -4.95189        0.00029        1.28695
N         -1.38612       -0.00060        0.26293
C         -0.70537       -1.22348        0.08796
C          0.70390       -1.22320        0.07145
C          1.38264       -2.43133       -0.05948
C          0.68890       -3.63826       -0.16795
C         -0.69476       -3.63856       -0.15226
C         -1.38633       -2.43189       -0.02775
N          1.38752       -0.00003        0.22913
C          2.80961        0.00022        0.13797
C          3.57063        0.00043        1.30472
C          4.95705        0.00063        1.22405
C          5.57681        0.00062       -0.02502
C          4.81962        0.00040       -1.19338
C          3.43188        0.00023       -1.10841
C          7.07485        0.00047       -0.06741
F          7.55692        0.00211       -1.31594
F          7.58406        1.07589        0.55870
F          7.58370       -1.07689        0.55570
C          0.70342        1.22286        0.07139
C         -0.70585        1.22255        0.08783
C         -1.38730        2.43066       -0.02819
C         -0.69622        3.63760       -0.15277
C          0.68744        3.63788       -0.16828
C          1.38167        2.43125       -0.05962
H         -5.33021       -0.00191       -2.09496
H         -2.83269       -0.00215       -1.96298
H         -3.04442        0.00063        2.31074
H         -5.54527        0.00098        2.19653
H          2.46931       -2.43629       -0.06637
H          1.24473       -4.56729       -0.26188
H         -1.25221       -4.56779       -0.23363
H         -2.47288       -2.43751       -0.00927
H          3.06122        0.00044        2.26546
H          5.56253        0.00080        2.12778
H          5.31172        0.00040       -2.16160
H          2.81708        0.00007       -2.00652
H         -2.47385        2.43585       -0.00990
H         -1.25406        4.56658       -0.23436
H          1.24289        4.56713       -0.26225
H          2.46834        2.43666       -0.06643
