43
../more/verde_crest_run2/KGNQGGBJXDFWRS-UHFFFAOYSA/s0_opt_freq_vac/mol_s0_opt_freq_vac.log	Energy: -721100.5159041
C         -6.66851       -1.43355       -0.00006
O         -6.19106       -0.10518       -0.00006
C         -4.85408        0.08970       -0.00006
C         -3.91415       -0.93353       -0.00008
C         -2.56063       -0.59978       -0.00009
C         -2.10201        0.71470       -0.00007
C         -3.08341        1.72267       -0.00005
C         -4.42938        1.42823       -0.00005
C         -0.66397        0.95412       -0.00006
C         -0.13046        2.22562       -0.00005
C          1.25771        2.44534       -0.00000
C          2.14587        1.32846        0.00004
C          3.54555        1.57753        0.00011
C          4.03309        2.85994        0.00012
C          3.14871        3.96319        0.00008
C          1.79350        3.75904        0.00002
C          1.60665        0.01017        0.00001
C          2.57234       -1.12193        0.00006
C          3.05608       -1.63187        1.20474
C          3.99395       -2.65910        1.20466
C          4.46335       -3.17693        0.00016
C          3.99421       -2.65898       -1.20439
C          3.05634       -1.63176       -1.20457
C          0.22352       -0.17073       -0.00005
C         -0.33346       -1.54187       -0.00013
O          0.29184       -2.57003       -0.00013
O         -1.70255       -1.65899       -0.00011
H         -6.33817       -1.97624       -0.89617
H         -7.75761       -1.36763       -0.00005
H         -6.33815       -1.97626        0.89603
H         -4.17802       -1.98605       -0.00009
H         -2.78300        2.76715       -0.00004
H         -5.18239        2.21119       -0.00003
H         -0.78113        3.09764       -0.00006
H          4.23224        0.73472        0.00014
H          5.10682        3.03016        0.00018
H          3.54796        4.97472        0.00009
H          1.10376        4.60161       -0.00001
H          2.68243       -1.22663        2.14425
H          4.35820       -3.05736        2.14889
H          5.19457       -3.98180        0.00021
H          4.35866       -3.05716       -2.14857
H          2.68290       -1.22642       -2.14412
