51
../more/verde_crest_run2/KKPOPIVHEODUEB-UHFFFAOYSA/s0_opt_freq_vac/mol_s0_opt_freq_vac.log	Energy: -841908.6833852
O          1.88935       -2.54400       -0.00060
C          1.33942       -1.47397       -0.00038
O         -0.03211       -1.48856       -0.00027
C         -0.80995       -0.36779       -0.00018
C         -0.25492        0.91372       -0.00017
C         -1.15194        1.99476       -0.00010
C         -2.51923        1.80265       -0.00004
C         -3.05556        0.50021       -0.00005
C         -2.18010       -0.58788       -0.00012
C         -4.46171        0.29175        0.00001
C         -5.66316        0.10787        0.00006
C         -7.06646       -0.13125        0.00008
C         -7.55677       -1.44672       -0.00033
C         -8.92486       -1.68379       -0.00032
C         -9.82163       -0.61708        0.00011
C         -9.34335        0.69181        0.00052
C         -7.97640        0.93746        0.00051
C          1.19858        1.04214       -0.00017
C          1.82553        2.27011       -0.00015
C          3.22678        2.38455       -0.00008
C          4.02627        1.20349        0.00000
C          5.44034        1.34435        0.00015
C          6.02423        2.58624        0.00018
C          5.22739        3.75394        0.00007
C          3.86023        3.65373       -0.00005
C          3.38943       -0.07133       -0.00006
C          4.26891       -1.27175        0.00007
C          4.71389       -1.81530        1.20497
C          5.57490       -2.90769        1.20489
C          6.00597       -3.45783        0.00040
C          5.57569       -2.90742       -1.20425
C          4.71469       -1.81502       -1.20466
C          1.99733       -0.14746       -0.00017
H         -0.76975        3.01212       -0.00007
H         -3.19454        2.65394        0.00002
H         -2.55035       -1.60913       -0.00014
H         -6.85043       -2.27346       -0.00066
H         -9.29419       -2.70647       -0.00064
H        -10.89244       -0.80558        0.00012
H        -10.04038        1.52640        0.00086
H         -7.59589        1.95613        0.00083
H          1.24268        3.18863       -0.00017
H          6.06074        0.45175        0.00025
H          7.10782        2.67382        0.00030
H          5.70301        4.73180        0.00010
H          3.23671        4.54634       -0.00012
H          4.37015       -1.38456        2.14455
H          5.90880       -3.33160        2.14912
H          6.67691       -4.31357        0.00052
H          5.91021       -3.33112       -2.14835
H          4.37158       -1.38406       -2.14436
