64
../more_cat/verde_crest_run2/NGKLMUAXNCHXCP-UHFFFAOYSA/s0_opt_freq_vac/mol_s0_opt_freq_vac.log	Energy: -890900.2089298
C          4.43687       -4.06863        1.21497
C          4.56904       -3.49123       -0.18387
N          4.62955       -2.02898       -0.18788
C          5.97410       -1.45204       -0.12513
C          6.56609       -1.19433       -1.49959
C          3.51279       -1.26844       -0.23179
C          2.22367       -1.84620       -0.19132
C          1.10537       -1.04497       -0.23250
C          1.17107        0.36969       -0.31612
C          2.47294        0.93341       -0.37131
C          3.59600        0.16012       -0.33178
C         -0.02056        1.11188       -0.32067
C          0.01521        2.59251       -0.44088
C         -0.17431        3.14966       -1.70561
C         -0.14884        4.52953       -1.88725
C          0.06230        5.36925       -0.79923
C          0.26263        4.82247        0.46291
C          0.25046        3.43851        0.65752
C          0.42351        2.83006        2.01283
O          1.10185        3.54409        2.92567
O         -0.01855        1.74490        2.29896
C         -1.24747        0.43421       -0.28655
C         -2.51728        1.06871       -0.26431
C         -3.67704        0.35516       -0.19226
C         -3.66742       -1.07818       -0.12841
C         -2.41052       -1.72449       -0.13746
C         -1.25401       -0.98227       -0.20822
O         -0.09095       -1.67573       -0.18416
N         -4.82144       -1.77847       -0.06084
C         -4.84068       -3.24155       -0.08783
C         -4.70347       -3.85543        1.29490
C         -6.13017       -1.13177        0.05858
C         -6.74754       -0.80514       -1.28983
H          3.51932       -3.72559        1.70575
H          5.28244       -3.76794        1.84390
H          4.41787       -5.16252        1.17985
H          3.75207       -3.81997       -0.83608
H          5.48979       -3.84904       -0.66083
H          6.59668       -2.16224        0.43291
H          5.95268       -0.54189        0.48384
H          7.58238       -0.79683       -1.41371
H          5.96395       -0.47544       -2.06662
H          6.61612       -2.11984       -2.08443
H          2.07058       -2.91577       -0.10059
H          2.57292        2.01309       -0.46083
H          4.56422        0.64381       -0.39774
H         -0.34311        2.48871       -2.55426
H         -0.30151        4.94636       -2.87907
H          0.06304        6.44773       -0.92931
H          0.38406        5.49591        1.31023
H          1.50527        4.33595        2.54614
H         -2.56016        2.15471       -0.30508
H         -4.61924        0.89164       -0.19312
H         -2.31191       -2.80121       -0.05632
H         -4.06003       -3.59955       -0.76845
H         -5.79185       -3.53870       -0.54654
H         -3.75593       -3.57310        1.76705
H         -4.74521       -4.94773        1.23704
H         -5.51437       -3.52332        1.95300
H         -6.04135       -0.24113        0.68981
H         -6.77363       -1.82266        0.61701
H         -6.12435       -0.10381       -1.85610
H         -7.73771       -0.35629       -1.16210
H         -6.86497       -1.71018       -1.89670
