46
../more_cat/verde_crest_run2/NRRZBJGBMPWSMT-UHFFFAOYSA/s0_opt_freq_vac/mol_s0_opt_freq_vac.log	Energy: -592115.4013111
C         -5.68698        0.01503        0.05740
C         -4.18945       -0.00691        0.04140
C         -3.48518       -0.00488       -1.16288
C         -2.09182        0.00127       -1.20391
C         -1.37065        0.00143       -2.52081
C         -1.38939        0.00289        0.01367
C         -2.06803       -0.00183        1.24468
C         -1.31921       -0.00449        2.54591
C         -3.46143       -0.00808        1.23186
C          0.09418        0.00180        0.00351
C          0.80781       -1.21196       -0.01231
C          0.12811       -2.46137       -0.05297
C          0.81977       -3.63998       -0.10166
C          2.23000       -3.61297       -0.12337
C          2.92876       -2.42938       -0.06804
C          2.23650       -1.20110        0.00669
N          2.90479       -0.00150        0.08864
C          4.36033       -0.00284        0.27763
C          2.23923        1.19957        0.00732
C          0.81059        1.21387       -0.01141
C          0.13389        2.46489       -0.05094
C          0.82835        3.64190       -0.09901
C          2.23852        3.61150       -0.12107
C          2.93444        2.42619       -0.06666
H         -6.06083        1.04540        0.10523
H         -6.08726       -0.51528        0.92743
H         -6.10584       -0.44133       -0.84497
H         -4.03716       -0.01018       -2.10295
H         -2.07908        0.00211       -3.35371
H         -0.72853       -0.88152       -2.63813
H         -0.72798        0.88408       -2.63720
H         -0.67468       -0.88784        2.64652
H         -2.00935       -0.00600        3.39404
H         -0.67480        0.87857        2.64961
H         -3.99483       -0.01591        2.18264
H         -0.95944       -2.45034       -0.05265
H          0.29324       -4.58877       -0.13667
H          2.78340       -4.54583       -0.19313
H          4.01057       -2.46143       -0.11760
H          4.65275        0.87116        0.85715
H          4.88418       -0.00356       -0.68396
H          4.65123       -0.87696        0.85768
H         -0.95366        2.45616       -0.05031
H          0.30412        4.59199       -0.13320
H          2.79414        4.54307       -0.19031
H          4.01634        2.45561       -0.11627
