94
../cyanorenes/verde_crest_run2/OYNJAUIAADXAOW-UHFFFAOYSA/s0_opt_freq_vac/mol_s0_opt_freq_vac.log	Energy: -1556285.9721507
N          0.01508       -3.16802        2.40282
C          0.00026       -2.26095        1.67606
C         -0.00041       -1.14423        0.78190
C          1.22955       -0.57988        0.39704
N          2.42598       -1.18552        0.80634
C          2.92467       -2.40211        0.30930
C          2.28613       -3.36469       -0.46332
C          3.03305       -4.46546       -0.86877
C          4.37983       -4.60259       -0.51006
C          5.00788       -3.63374        0.26216
C          4.27846       -2.51981        0.67588
C          4.62021       -1.33766        1.43220
C          3.46164       -0.54238        1.50070
C          3.42426        0.64752        2.21641
C          4.60170        1.07024        2.82260
C          5.77595        0.31164        2.73516
C          5.78942       -0.89943        2.05380
C          1.22850        0.58949       -0.38508
N          2.42398        1.19234       -0.80131
C          3.46522        0.53791       -1.47631
C          3.43685       -0.67053       -2.16081
C          4.61871       -1.10181       -2.75224
C          5.78841       -0.33455       -2.68060
C          5.79326        0.89308       -2.02943
C          4.61969        1.34023       -1.42264
C          4.26955        2.53827       -0.69570
C          2.91542        2.42195       -0.32985
C          2.26944        3.39948        0.41737
C          3.00973        4.51293        0.79970
C          4.35712        4.64818        0.44243
C          4.99227        3.66497       -0.30544
C         -0.00237        1.14866       -0.77437
C         -0.00315        2.26296       -1.67182
N         -0.00391        3.16628       -2.40347
C         -1.23240        0.58492       -0.38877
N         -2.42802        1.18772       -0.80485
C         -2.92692        2.40853       -0.31874
C         -2.28973        3.37639        0.44835
C         -3.03703        4.48055        0.84380
C         -4.38272        4.61603        0.48027
C         -5.00918        3.64222       -0.28701
C         -4.27938        2.52483       -0.69061
C         -4.61974        1.33747       -1.43938
C         -3.46146        0.54104       -1.49913
C         -3.42240       -0.65342       -2.20724
C         -4.59806       -1.07877       -2.81503
C         -5.77220       -0.31906       -2.73586
C         -5.78724        0.89612       -2.06186
C         -1.23141       -0.58420        0.39399
N         -2.42589       -1.19104        0.80720
C         -3.46442       -0.54682        1.49607
C         -3.43323        0.65072        2.19928
C         -4.61272        1.07291        2.80191
C         -5.78277        0.30692        2.72295
C         -5.78988       -0.91114        2.05404
C         -4.61862       -1.34914        1.43624
C         -4.27036       -2.53761        0.69285
C         -2.91764       -2.41574        0.32366
C         -2.27367       -3.38304       -0.43845
C         -3.01443       -4.49238       -0.83171
C         -4.36015       -4.63362       -0.47052
C         -4.99333       -3.66040        0.29197
H          1.24022       -3.26817       -0.74872
H          2.55706       -5.23664       -1.46934
H          4.93524       -5.47706       -0.83916
H          6.05660       -3.73518        0.53456
H          2.51315        1.23486        2.30156
H          4.60527        2.00836        3.37254
H          6.68121        0.66939        3.21899
H          6.69604       -1.49948        2.00650
H          2.52949       -1.26559       -2.23256
H          4.62955       -2.05291       -3.27925
H          6.69716       -0.69941       -3.15242
H          6.69670        1.49870       -1.99358
H          1.22286        3.30472        0.70088
H          2.52797        5.29565        1.38041
H          4.90726        5.53268        0.75308
H          6.04135        3.76527       -0.57689
H         -1.24477        3.28093        0.73757
H         -2.56226        5.25563        1.44031
H         -4.93845        5.49320        0.80157
H         -6.05694        3.74261       -0.56346
H         -2.51151       -1.24221       -2.28509
H         -4.60067       -2.01946       -3.36054
H         -6.67606       -0.67934       -3.22042
H         -6.69361        1.49705       -2.02117
H         -2.52546        1.24426        2.27744
H         -4.62130        2.01628        3.34271
H         -6.68972        0.66454        3.20370
H         -6.69314       -1.51674        2.01352
H         -1.22859       -3.28317       -0.72580
H         -2.53433       -5.26709       -1.42442
H         -4.91061       -5.51481       -0.78985
H         -6.04128       -3.76506        0.56616
