55
../more/verde_crest_run2/PLTAYDSIFZVSFM-UHFFFAOYSA/s0_opt_freq_vac/mol_s0_opt_freq_vac.log	Energy: -913739.4078579
C        -11.08400       -1.37972       -0.00007
O        -10.43417       -0.12802       -0.00013
C         -9.08034       -0.10927       -0.00007
C         -8.27567       -1.25097        0.00005
C         -6.89170       -1.11524        0.00010
C         -6.28674        0.14726        0.00004
C         -7.11476        1.28564       -0.00008
C         -8.48989        1.16031       -0.00014
C         -4.87166        0.28307        0.00010
C         -3.66234        0.41052        0.00013
C         -2.25162        0.57937        0.00009
C         -1.39753       -0.52594        0.00013
C         -0.02312       -0.33245        0.00009
C          0.55732        0.93766        0.00001
C         -0.31789        2.03623       -0.00003
C         -1.68808        1.87106        0.00001
C          2.01231        1.03925       -0.00001
C          2.66115        2.25579       -0.00000
C          4.06390        2.34524       -0.00000
C          4.84265        1.15025       -0.00001
C          6.25904        1.26676       -0.00004
C          6.86444        2.49834       -0.00003
C          6.08791        3.67980       -0.00000
C          4.71932        3.60321        0.00001
C          4.18295       -0.11297       -0.00001
C          5.04103       -1.32877       -0.00005
C          5.47770       -1.87941        1.20467
C          6.32128       -2.98533        1.20441
C          6.74324       -3.54233       -0.00015
C          6.32104       -2.98540       -1.20467
C          5.47746       -1.87949       -1.20482
C          2.78959       -0.16432       -0.00002
C          2.10626       -1.47821        0.00000
O          2.63666       -2.55832        0.00039
O          0.73486       -1.46755        0.00012
H        -12.15465       -1.16888       -0.00013
H        -10.83121       -1.96271        0.89627
H        -10.83113       -1.96285       -0.89629
H         -8.71190       -2.24526        0.00010
H         -6.26321       -2.00268        0.00019
H         -6.65726        2.27207       -0.00013
H         -9.13912        2.03194       -0.00023
H         -1.78764       -1.53978        0.00020
H          0.08388        3.04598       -0.00008
H         -2.34650        2.73552       -0.00002
H          2.09497        3.18463        0.00001
H          6.86393        0.36355       -0.00006
H          7.94939        2.56711       -0.00005
H          6.58038        4.64929        0.00001
H          4.11124        4.50642        0.00003
H          5.14144       -1.44292        2.14428
H          6.64890       -3.41425        2.14859
H          7.40079       -4.40842       -0.00019
H          6.64847       -3.41438       -2.14889
H          5.14100       -1.44305       -2.14439
