94
../cyanorenes/verde_crest_run2/PRWATGACIORDEL-UHFFFAOYSA/s0_opt_freq_vac/mol_s0_opt_freq_vac.log	Energy: -1556285.2387051
N          2.98806       -3.08099        1.48249
C          2.37155       -2.21197        1.01800
C          1.63783       -1.12180        0.45474
C          0.22979       -1.14292        0.43334
N         -0.43662       -2.30017        0.85578
C         -1.50074       -2.35160        1.77302
C         -1.89071       -1.40715        2.71322
C         -3.00221       -1.69839        3.49581
C         -3.68407       -2.91469        3.36414
C         -3.25382       -3.87393        2.45544
C         -2.14849       -3.59474        1.65248
C         -1.44948       -4.34215        0.63273
C         -0.39958       -3.52953        0.16604
C          0.44141       -3.93569       -0.86377
C          0.21435       -5.18812       -1.42490
C         -0.82224       -6.01228       -0.97061
C         -1.65737       -5.59507        0.05827
C         -0.47936        0.00020        0.00038
N         -1.88024        0.00042        0.00020
C         -2.70192        0.86543        0.73680
C         -2.34768        1.84617        1.65603
C         -3.37273        2.56205        2.26374
C         -4.71725        2.28987        1.97857
C         -5.06117        1.27908        1.08926
C         -4.04747        0.55437        0.46322
C         -4.04750       -0.55372       -0.46255
C         -2.70193       -0.86510       -0.73574
C         -2.34767       -1.84621       -1.65459
C         -3.37276       -2.56177       -2.26263
C         -4.71729       -2.28902       -1.97808
C         -5.06121       -1.27814       -1.08888
C          0.23046        1.14298       -0.43276
N         -0.43530        2.30044       -0.85582
C         -0.39789        3.53007       -0.16658
C          0.44294        3.93624        0.86336
C          0.21604        5.18884        1.42419
C         -0.82008        6.01327        0.96931
C         -1.65480        5.59624       -0.05997
C         -1.44715        4.34311       -0.63404
C         -2.14630        3.59559       -1.65360
C         -1.49921        2.35202       -1.77331
C         -1.88971        1.40721       -2.71291
C         -3.00088        1.69866       -3.49588
C         -3.68205        2.91545       -3.36507
C         -3.25139        3.87495       -2.45685
C          1.63848        1.12124       -0.45383
C          2.37291        2.21100       -1.01705
N          2.98418        3.08345       -1.48206
C          2.34094       -0.00045        0.00057
N          3.74241       -0.00097        0.00059
C          4.55695        0.68770        0.90375
C          4.18739        1.48043        1.98381
C          5.20968        2.04521        2.73870
C          6.55616        1.81807        2.42512
C          6.91054        1.01356        1.34920
C          5.90400        0.43703        0.57478
C          5.90362       -0.43897       -0.57503
C          4.55636       -0.68965       -0.90310
C          4.18607       -1.48244       -1.98285
C          5.20783       -2.04728       -2.73840
C          6.55453       -1.82014       -2.42574
C          6.90964       -1.01556       -1.35009
H         -1.35954       -0.46648        2.83331
H         -3.34392       -0.96266        4.22053
H         -4.55042       -3.11314        3.98988
H         -3.76875       -4.82880        2.37049
H          1.25439       -3.30976       -1.22594
H          0.86327       -5.53356       -2.22575
H         -0.97088       -6.98742       -1.42713
H         -2.47080       -6.22919        0.40531
H         -1.30901        2.06058        1.89688
H         -3.11758        3.35063        2.96823
H         -5.49666        2.86901        2.46719
H         -6.10555        1.05092        0.88541
H         -1.30894       -2.06094       -1.89503
H         -3.11780       -3.35017       -2.96735
H         -5.49672       -2.86792       -2.46696
H         -6.10559       -1.04970       -0.88539
H          1.25564        3.31017        1.22590
H          0.86483        5.53425        2.22516
H         -0.96862        6.98853        1.42562
H         -2.46791        6.23054       -0.40742
H         -1.35914        0.46610       -2.83230
H         -3.34294        0.96268       -4.22018
H         -4.54816        3.11404       -3.99109
H         -3.76575        4.83018       -2.37257
H          3.14122        1.64617        2.23599
H          4.95707        2.67259        3.58991
H          7.33092        2.27467        3.03551
H          7.95763        0.83308        1.11441
H          3.13971       -1.64822       -2.23428
H          4.95465       -2.67473       -3.58939
H          7.32887       -2.27679       -3.03660
H          7.95689       -0.83513       -1.11598
