74
../dihydroacridine/verde_crest_run2/PXFRNHYIQGEVHE-UHFFFAOYSA/s0_opt_freq_vac/mol_s0_opt_freq_vac.log	Energy: -1189416.7881919
C         -4.71666        0.00970       -1.22514
C         -3.83350        0.00734        0.03503
C         -4.72571        0.00951        1.28930
C         -2.97764       -1.25431        0.04029
C         -3.60101       -2.50101        0.00736
C         -2.90702       -3.71248        0.02634
C         -1.51221       -3.64707        0.08935
C         -0.85806       -2.42809        0.12318
C         -1.57466       -1.22083        0.09592
N         -0.88878       -0.00048        0.12676
C          0.53781       -0.00444        0.10027
C          1.26020        0.02253        1.28977
C          2.64967        0.02072        1.25802
C          3.33952       -0.01136        0.03972
C          2.59748       -0.03881       -1.14827
C          1.20894       -0.03408       -1.11951
C          4.81648       -0.01843        0.00758
C          5.55765        0.75489        0.91178
C          6.94349        0.74710        0.88327
C          7.61516       -0.03759       -0.05369
C          6.89739       -0.81059       -0.95967
C          5.50792       -0.79849       -0.92516
C          9.11166       -0.01148       -0.05952
F          9.58295        1.21687       -0.34265
F          9.61716       -0.34073        1.14269
F          9.63983       -0.85385       -0.95632
C         -1.56781        1.22325        0.08199
C         -2.97114        1.26457        0.04253
C         -3.58804        2.51453        0.00832
C         -2.88706        3.72214        0.00756
C         -1.49159        3.64862        0.04280
C         -0.84393        2.42645        0.08018
C         -3.59119        5.01857       -0.03258
C         -4.80118        5.20625        0.64853
C         -5.46422        6.42783        0.60652
C         -4.92925        7.49261       -0.11416
C         -3.72555        7.32201       -0.79351
C         -3.06612        6.09848       -0.75445
C         -3.61929       -5.00417       -0.02168
C         -3.15966       -6.10810        0.70821
C         -3.82820       -7.32656        0.65953
C         -4.97476       -7.46780       -0.11823
C         -5.44402       -6.37880       -0.84846
C         -4.77210       -5.16225       -0.80197
H         -5.36344        0.89393       -1.25686
H         -5.36638       -0.87267       -1.25590
H         -4.09750        0.00862       -2.13010
H         -5.37517       -0.87340        1.31601
H         -5.36956        0.89683        1.31449
H         -4.11229        0.00808        2.19828
H         -4.68968       -2.53766       -0.00940
H         -0.92441       -4.56314        0.08295
H          0.22762       -2.41173        0.15938
H          0.72056        0.03710        2.23480
H          3.20828        0.01536        2.19205
H          3.11562       -0.03581       -2.10534
H          0.62908       -0.04532       -2.04060
H          5.03861        1.38856        1.62782
H          7.51103        1.35681        1.58317
H          7.42131       -1.42862       -1.68311
H          4.95102       -1.42664       -1.61723
H         -4.67528        2.55591       -0.04646
H         -0.89983        4.56173        0.06948
H          0.24150        2.40479        0.12001
H         -5.21269        4.39062        1.24102
H         -6.39855        6.55205        1.14960
H         -5.44648        8.44856       -0.14575
H         -3.30222        8.14357       -1.36721
H         -2.14151        5.96716       -1.31404
H         -2.28099       -6.00017        1.34203
H         -3.45717       -8.16769        1.24105
H         -5.49849       -8.42000       -0.15540
H         -6.33248       -6.47991       -1.46792
H         -5.12925       -4.32645       -1.40161
