97
../dihydroacridine/verde_crest_run2/QCEOYUWWCHJWKC-UHFFFAOYSA/s0_opt_freq_vac/mol_s0_opt_freq_vac.log	Energy: -1690631.5249067
C         -0.18355       -3.94162       -1.34937
C         -0.16986       -3.06598       -0.08350
C         -0.24742       -3.96278        1.16447
C          1.13087       -2.27248       -0.04497
C          2.34394       -2.95808        0.00492
C          3.58874       -2.32623        0.03137
C          3.59328       -0.92833        0.00162
C          2.40956       -0.21348       -0.04801
C          1.16795       -0.86887       -0.07161
N         -0.01739       -0.12334       -0.11788
C          0.05665        1.30016       -0.09183
C          0.06175        1.97309        1.12739
C          0.13972        3.35944        1.15528
C          0.21449        4.09499       -0.03420
C          0.20626        3.40525       -1.25263
C          0.12760        2.01831       -1.28238
C          0.30196        5.56970       -0.00396
C          1.10659        6.26026       -0.91470
C          1.18802        7.64819       -0.88222
C          0.47427        8.38474        0.05617
C         -0.32520        7.70118        0.96496
C         -0.41471        6.31363        0.93730
C         -1.13385        8.43847        1.99136
F         -2.44991        8.23226        1.81564
F         -0.84408        8.01852        3.23448
F         -0.92718        9.75864        1.95558
C          2.06687        8.32609       -1.89183
F          2.12796        9.64937       -1.71263
F          3.32317        7.85396       -1.84360
F          1.62520        8.11007       -3.14313
C         -1.27382       -0.74286       -0.12469
C         -1.38235       -2.14283       -0.11078
C         -2.66043       -2.69962       -0.12247
C         -3.83370       -1.94283       -0.14580
C         -3.69311       -0.55182       -0.15874
C         -2.44091        0.03720       -0.14987
C         -5.16107       -2.58503       -0.15469
C         -6.24449       -2.01538        0.52648
C         -7.49491       -2.61759        0.52024
C         -7.71744       -3.81777       -0.16563
C         -6.63528       -4.38787       -0.84679
C         -5.38549       -3.78422       -0.84280
C         -9.04729       -4.45987       -0.17093
C         -9.53204       -5.09957       -1.31884
C        -10.78359       -5.70539       -1.32453
C        -11.57865       -5.68330       -0.18142
C        -11.10985       -5.05014        0.96690
C         -9.85755       -4.44577        0.97164
C          4.84222       -3.10067        0.09216
C          4.92754       -4.29073        0.82581
C          6.10992       -5.01510        0.88549
C          7.26049       -4.58022        0.21689
C          7.17624       -3.39099       -0.51726
C          5.99314       -2.66796       -0.57904
C          8.51968       -5.34860        0.28726
C          9.35708       -5.46364       -0.82972
C         10.54289       -6.18664       -0.76167
C         10.91651       -6.81131        0.42555
C         10.09352       -6.70540        1.54394
C          8.90856       -5.98125        1.47494
H          0.66662       -4.63361       -1.36279
H         -0.12904       -3.31840       -2.24992
H         -1.10002       -4.54097       -1.40525
H         -0.24012       -3.35533        2.07722
H          0.60159       -4.65469        1.20904
H         -1.16215       -4.56647        1.16514
H          2.32469       -4.04720       -0.00192
H          4.53586       -0.38630        0.04850
H          2.44890        0.87224       -0.05539
H          0.01491        1.39537        2.04854
H          0.17244        3.87623        2.11256
H          0.23385        3.96127       -2.18781
H          0.11229        1.47754       -2.22665
H          1.69811        5.70818       -1.64330
H          0.54148        9.46758        0.08045
H         -1.06937        5.80745        1.64497
H         -2.75371       -3.78429       -0.08543
H         -4.57515        0.08397       -0.20610
H         -2.36672        1.12089       -0.17462
H         -6.09935       -1.09291        1.08604
H         -8.32090       -2.13994        1.04442
H         -6.77234       -5.32946       -1.37579
H         -4.57019       -4.24254       -1.40023
H         -8.93005       -5.09747       -2.22587
H        -11.14389       -6.18899       -2.22975
H        -12.55763       -6.15655       -0.18549
H        -11.71871       -5.03499        1.86812
H         -9.48796       -3.97801        1.88255
H          4.05699       -4.64440        1.37586
H          6.13913       -5.94533        1.45025
H          8.05873       -3.01798       -1.03429
H          5.95473       -1.75648       -1.17306
H          9.05965       -5.00216       -1.76981
H         11.17393       -6.27068       -1.64364
H         11.84358       -7.37709        0.47881
H         10.38052       -7.18119        2.47903
H          8.28588       -5.88018        2.36216
