44
../dihydrophena/verde_crest_run2/RCBSZGSHSLQLBI-UHFFFAOYSA/s0_opt_freq_vac/mol_s0_opt_freq_vac.log	Energy: -648953.1903955
C          5.59087       -0.00003       -0.04291
C          4.82924       -0.00020       -1.21084
C          3.44053       -0.00024       -1.13526
C          2.81418       -0.00010        0.11041
C          3.57154        0.00007        1.27760
C          4.96244        0.00011        1.19973
N          1.38943       -0.00006        0.19436
C          0.70516       -1.22258        0.04988
C         -0.70526       -1.22252        0.04982
C         -1.38472       -2.43274       -0.05806
C         -0.69201       -3.64140       -0.15895
C          0.69174       -3.64146       -0.15885
C          1.38454       -2.43285       -0.05789
N         -1.38943        0.00006        0.19422
C         -2.81419        0.00010        0.11036
C         -3.57148       -0.00011        1.27759
C         -4.96239       -0.00015        1.19979
C         -5.59088        0.00003       -0.04281
C         -4.82932        0.00024       -1.21078
C         -3.44061        0.00027       -1.13528
C         -0.70516        1.22258        0.04985
C          0.70526        1.22252        0.04987
C          1.38473        2.43274       -0.05797
C          0.69203        3.64140       -0.15889
C         -0.69172        3.64146       -0.15887
C         -1.38453        2.43286       -0.05795
H          6.67662        0.00001       -0.10283
H          5.31914       -0.00031       -2.18169
H          2.82601       -0.00036       -2.03419
H          3.05721        0.00019        2.23645
H          5.55547        0.00025        2.11115
H         -2.47145       -2.43495       -0.05388
H         -1.24897       -4.57162       -0.23528
H          1.24864       -4.57173       -0.23511
H          2.47127       -2.43514       -0.05356
H         -3.05710       -0.00025        2.23641
H         -5.55537       -0.00031        2.11125
H         -6.67664       -0.00001       -0.10268
H         -5.31927        0.00038       -2.18161
H         -2.82613        0.00042       -2.03424
H          2.47146        2.43494       -0.05371
H          1.24900        4.57162       -0.23520
H         -1.24861        4.57173       -0.23515
H         -2.47126        2.43515       -0.05369
