24
../more/verde_crest_run2/RZVHIXYEVGDQDX-UHFFFAOYSA/s0_opt_freq_vac/mol_s0_opt_freq_vac.log	Energy: -431939.4336838
O         -0.00000        2.69623       -0.00001
C         -0.00000        1.47441       -0.00048
C         -1.26959        0.70220       -0.00014
C         -1.26959       -0.70220       -0.00009
C         -2.48020       -1.39494        0.00006
C         -3.68162       -0.69777        0.00026
C         -3.68162        0.69777        0.00027
C         -2.48020        1.39494        0.00007
C          0.00000       -1.47441       -0.00016
O          0.00000       -2.69623       -0.00054
C          1.26959       -0.70220       -0.00008
C          1.26959        0.70220       -0.00012
C          2.48020        1.39494        0.00010
C          3.68162        0.69777        0.00031
C          3.68162       -0.69777        0.00030
C          2.48020       -1.39494        0.00009
H         -2.45275       -2.48174        0.00007
H         -4.62318       -1.24140        0.00042
H         -4.62318        1.24140        0.00042
H         -2.45275        2.48174        0.00001
H          2.45275        2.48174        0.00004
H          4.62318        1.24140        0.00047
H          4.62318       -1.24140        0.00048
H          2.45275       -2.48174        0.00010
