79
../cyanorenes/verde_crest_run2/VPCXVCNTHAMRBT-UHFFFAOYSA/s0_opt_freq_vac/mol_s0_opt_freq_vac.log	Energy: -1301421.8027984
F          2.43000        0.92349        0.74206
C          1.27124        0.44870        0.28898
C          0.27328        1.34830       -0.07952
N          0.48396        2.73158        0.00006
C          1.56638        3.30758       -0.70795
C          2.29833        4.36351       -0.15832
C          3.36571        4.90700       -0.86193
C          3.73032        4.39680       -2.10656
C          3.00614        3.33851       -2.64755
C          1.92297        2.80133       -1.96069
C         -0.37691        3.50023        0.82845
C         -0.82503        2.97160        2.04137
C         -1.70975        3.69603        2.83283
C         -2.13623        4.95953        2.43561
C         -1.67989        5.48820        1.22945
C         -0.81390        4.76259        0.42169
C         -0.96576        0.81820       -0.48738
C         -1.97967        1.68989       -0.98472
N         -2.79506        2.38813       -1.43405
C         -1.21669       -0.56677       -0.45396
N         -2.49430       -1.07439       -0.73938
C         -3.56380       -0.69874        0.11376
C         -3.34005       -0.55881        1.48616
C         -4.37190       -0.14425        2.32167
C         -5.63725        0.11369        1.80330
C         -5.85910       -0.03429        0.43517
C         -4.82976       -0.42673       -0.41048
C         -2.67052       -1.94311       -1.84228
C         -1.95731       -1.71838       -3.02222
C         -2.10324       -2.58413       -4.10099
C         -2.97340       -3.66754       -4.02288
C         -3.69176       -3.88335       -2.84791
C         -3.53788       -3.03581       -1.75814
C         -0.16411       -1.41507       -0.12413
F         -0.37442       -2.72975       -0.12308
C          1.10143       -0.93987        0.24034
N          2.12812       -1.80939        0.62369
C          3.39115       -1.70504       -0.01162
C          4.57161       -1.87607        0.71628
C          5.80105       -1.75927        0.07997
C          5.87242       -1.45155       -1.27717
C          4.69534       -1.26941       -1.99718
C          3.45954       -1.40472       -1.37455
C          1.89799       -2.71049        1.69544
C          2.39533       -4.01475        1.64211
C          2.15763       -4.88985        2.69434
C          1.40664       -4.48590        3.79705
C          0.90137       -3.18994        3.84230
C          1.15220       -2.30034        2.80275
H          2.03028        4.74850        0.82279
H          3.92900        5.72759       -0.42356
H          4.57185        4.82039       -2.64849
H          3.27449        2.93406       -3.62082
H          1.34399        1.98802       -2.39648
H         -0.48459        1.98615        2.35845
H         -2.05938        3.27055        3.77069
H         -2.82606        5.52580        3.05591
H         -2.02159        6.46631        0.89943
H         -0.48914        5.15752       -0.53834
H         -2.35447       -0.77895        1.89642
H         -4.18493       -0.03401        3.38752
H         -6.44352        0.43452        2.45781
H         -6.83838        0.18334        0.01554
H         -4.99175       -0.50273       -1.48344
H         -1.29826       -0.85439       -3.09414
H         -1.54290       -2.39821       -5.01436
H         -3.09213       -4.33861       -4.86961
H         -4.36820       -4.73154       -2.77135
H         -4.08204       -3.21754       -0.83414
H          4.51989       -2.09124        1.78103
H          6.71318       -1.89271        0.65702
H          6.83724       -1.35233       -1.76761
H          4.73503       -1.03279       -3.05796
H          2.54033       -1.28138       -1.94527
H          2.96163       -4.33573        0.77075
H          2.54785       -5.90364        2.64325
H          1.21529       -5.17785        4.61310
H          0.31783       -2.86068        4.69889
H          0.77534       -1.27874        2.84868
