69
../more_cat/verde_crest_run2/WEKSJBGRHJGKLA-UHFFFAOYSA/s0_opt_freq_vac/mol_s0_opt_freq_vac.log	Energy: -999678.0200480
C         -3.37586        4.81893        0.04444
O         -1.95498        4.78508        0.04577
C         -1.32797        3.60888        0.04443
C         -1.97492        2.38257        0.04128
C         -1.20736        1.21155        0.04106
C          0.22348        1.23141        0.04419
C          0.84047        2.54867        0.04673
O          2.17145        2.58946        0.05305
C          2.84109        3.84077        0.05282
C          0.07605        3.69084        0.04676
C          0.94204        0.01154        0.03591
C          2.43163        0.01819       -0.01027
C          3.07105        0.00939       -1.25468
C          2.28580        0.00566       -2.53330
C          4.46453       -0.00313       -1.28510
C          5.22718       -0.00511       -0.11739
C          6.72541        0.00962       -0.17241
C          4.55533        0.00334        1.10649
C          3.16505        0.01714        1.18222
C          2.47410        0.02246        2.51306
C          0.23955       -1.21788        0.04830
C          0.87336       -2.52741        0.05827
O          2.20412       -2.55062        0.07969
C          2.89416       -3.79067        0.09441
C          0.12388       -3.67950        0.05128
C         -1.28097       -3.61564        0.03770
O         -1.89309       -4.79967        0.03198
C         -3.31336       -4.85129        0.01989
C         -1.94360       -2.39771        0.03293
C         -1.19137       -1.21690        0.03945
N         -1.85269       -0.00690        0.02945
C         -3.29735       -0.01633       -0.02033
C         -3.92734       -0.01606       -1.25932
C         -5.31819       -0.02561       -1.30989
C         -6.05867       -0.03531       -0.12904
C         -5.41301       -0.03536        1.10604
C         -4.02196       -0.02584        1.16569
H         -3.64902        5.87395        0.04560
H         -3.77941        4.33575        0.94224
H         -3.77777        4.33813       -0.85541
H         -3.05513        2.32487        0.03812
H          2.59392        4.41788       -0.84643
H          3.90559        3.60266        0.05355
H          2.59250        4.41936        0.95079
H          0.51830        4.68043        0.05044
H          2.95053        0.00667       -3.40211
H          1.63480        0.88670       -2.61639
H          1.64001       -0.87950       -2.61490
H          4.96953       -0.01425       -2.25188
H          7.11242        1.03560       -0.12754
H          7.09877       -0.43672       -1.09995
H          7.16415       -0.53616        0.66978
H          5.13298       -0.00252        2.03192
H          3.19797        0.02309        3.33328
H          1.83096       -0.85892        2.64183
H          1.83550        0.90781        2.63641
H          2.63914       -4.37139        0.98923
H          3.95362       -3.53167        0.11400
H          2.67281       -4.37371       -0.80773
H          0.57960       -4.66300        0.05852
H         -3.71451       -4.37347       -0.88188
H         -3.72968       -4.37528        0.91570
H         -3.57330       -5.90964        0.01667
H         -3.02443       -2.35409        0.02365
H         -3.32788       -0.00849       -2.16780
H         -5.82366       -0.02556       -2.27186
H         -7.14457       -0.04282       -0.17158
H         -5.99240       -0.04286        2.02536
H         -3.49586       -0.02589        2.11859
