62
../more/verde_crest_run2/WRWCNKMJAJDJOS-UHFFFAOYSA/s0_opt_freq_vac/mol_s0_opt_freq_vac.log	Energy: -890927.8359001
C         -4.81320       -3.51288       -0.80897
C         -5.44731       -2.47768       -0.12342
C         -4.79718       -1.27049        0.09662
C         -3.49731       -1.06854       -0.38784
C         -2.86109       -2.10891       -1.07401
C         -3.51626       -3.31980       -1.27464
N         -2.82850        0.14915       -0.14530
C         -3.51260        1.38807       -0.16843
C         -3.14599        2.39173        0.73428
C         -3.78836        3.62395        0.70970
C         -4.81213        3.86901       -0.20315
C         -5.17934        2.86909       -1.10078
C         -4.53111        1.63883       -1.09373
C         -1.40684        0.17050       -0.10759
C         -0.70295        0.82212       -1.09537
C          0.70295        0.82212       -1.09537
C          1.40684        0.17050       -0.10759
N          2.82850        0.14915       -0.14530
C          3.49731       -1.06854       -0.38784
C          4.79718       -1.27049        0.09662
C          5.44731       -2.47768       -0.12342
C          4.81320       -3.51288       -0.80897
C          3.51626       -3.31980       -1.27464
C          2.86109       -2.10891       -1.07401
C          3.51260        1.38807       -0.16843
C          4.53111        1.63883       -1.09373
C          5.17934        2.86909       -1.10078
C          4.81213        3.86901       -0.20315
C          3.78836        3.62395        0.70970
C          3.14599        2.39173        0.73428
C          0.71380       -0.46776        0.96352
C         -0.71380       -0.46776        0.96352
C         -1.39853       -1.06424        2.05106
C         -0.70551       -1.63782        3.08850
C          0.70551       -1.63782        3.08850
C          1.39853       -1.06424        2.05106
H         -5.32297       -4.45874       -0.97266
H         -6.45641       -2.61494        0.25911
H         -5.29128       -0.47379        0.64901
H         -1.84933       -1.96543       -1.44842
H         -3.00494       -4.11694       -1.80980
H         -2.35349        2.19300        1.45406
H         -3.49326        4.39455        1.41833
H         -5.31779        4.83119       -0.21595
H         -5.96936        3.05118       -1.82601
H         -4.80996        0.86507       -1.80590
H         -1.25120        1.31866       -1.89400
H          1.25121        1.31866       -1.89400
H          5.29128       -0.47379        0.64901
H          6.45641       -2.61494        0.25911
H          5.32297       -4.45874       -0.97266
H          3.00494       -4.11694       -1.80980
H          1.84933       -1.96543       -1.44842
H          4.80996        0.86507       -1.80590
H          5.96936        3.05118       -1.82601
H          5.31779        4.83119       -0.21595
H          3.49326        4.39455        1.41833
H          2.35349        2.19300        1.45406
H         -2.48612       -1.05236        2.05650
H         -1.24607       -2.08674        3.91831
H          1.24607       -2.08674        3.91831
H          2.48612       -1.05236        2.05650
