27
../more_cat/verde_crest_run2/XMERJRJGAISXBY-UHFFFAOYSA/s0_opt_freq_vac/mol_s0_opt_freq_vac.log	Energy: -373264.0232989
C         -0.00005        2.60705        0.16851
N         -0.00001        1.14220        0.05670
C          1.20409        0.47695        0.00738
C          2.43731        1.15581       -0.08690
C          3.61331        0.44068       -0.11302
C          3.63397       -0.97007       -0.04279
C          2.45151       -1.65116        0.02892
C          1.21344       -0.95295        0.04391
C          0.00001       -1.63303        0.08323
C         -1.21342       -0.95296        0.04390
C         -1.20409        0.47693        0.00737
C         -2.43730        1.15579       -0.08689
C         -3.61330        0.44066       -0.11302
C         -3.63395       -0.97009       -0.04280
C         -2.45149       -1.65118        0.02891
H          0.00002        3.07598       -0.82078
H          0.87415        2.92880        0.73173
H         -0.87437        2.92875        0.73158
H          2.48257        2.23490       -0.17303
H          4.55148        0.98274       -0.19827
H          4.58094       -1.50041       -0.05864
H          2.42871       -2.73785        0.06747
H          0.00002       -2.72216        0.12524
H         -2.48255        2.23488       -0.17300
H         -4.55147        0.98272       -0.19825
H         -4.58092       -1.50043       -0.05864
H         -2.42869       -2.73787        0.06746
