52
../dihydrophena/verde_crest_run2/XNFHFFWRUFLEQE-UHFFFAOYSA/s0_opt_freq_vac/mol_s0_opt_freq_vac.log	Energy: -792613.7949202
C         -7.76429       -0.00000       -0.71882
O         -6.94629        0.00001        0.42914
C         -5.60126        0.00001        0.25598
C         -4.96819        0.00002       -0.98860
C         -3.57499        0.00001       -1.04674
C         -2.81556        0.00000        0.11589
C         -3.45624       -0.00000        1.35698
C         -4.83893       -0.00000        1.43009
N         -1.39293        0.00000        0.04540
C         -0.70530       -1.22602        0.02503
C          0.70530       -1.22603       -0.02504
C          1.38345       -2.44129       -0.05059
C          0.69118       -3.65493       -0.02569
C         -0.69119       -3.65492        0.02570
C         -1.38346       -2.44128        0.05059
N          1.39293       -0.00000       -0.04541
C          2.81556       -0.00001       -0.11589
C          3.57499        0.00001        1.04673
C          4.96819        0.00002        0.98860
C          5.60126       -0.00000       -0.25598
O          6.94629        0.00000       -0.42913
C          7.76429        0.00001        0.71883
C          4.83893       -0.00002       -1.43009
C          3.45625       -0.00002       -1.35698
C          0.70530        1.22602       -0.02504
C         -0.70530        1.22602        0.02503
C         -1.38345        2.44129        0.05060
C         -0.69118        3.65492        0.02570
C          0.69119        3.65492       -0.02570
C          1.38346        2.44128       -0.05060
H         -7.59584       -0.89611       -1.33224
H         -7.59586        0.89611       -1.33225
H         -8.79529       -0.00002       -0.36101
H         -5.54065        0.00002       -1.91128
H         -3.06480        0.00002       -2.00837
H         -2.85154       -0.00001        2.26208
H         -5.35910       -0.00001        2.38448
H          2.46955       -2.44120       -0.09018
H          1.24804       -4.58816       -0.04670
H         -1.24806       -4.58815        0.04671
H         -2.46956       -2.44119        0.09019
H          3.06480        0.00003        2.00837
H          5.54064        0.00003        1.91128
H          8.79529       -0.00000        0.36102
H          7.59584       -0.89609        1.33226
H          7.59585        0.89612        1.33225
H          5.35910       -0.00003       -2.38448
H          2.85155       -0.00004       -2.26208
H         -2.46955        2.44120        0.09020
H         -1.24804        4.58816        0.04672
H          1.24806        4.58815       -0.04672
H          2.46956        2.44118       -0.09020
