77
../dihydroacridine/verde_crest_run2/XUGVTAMMZFAYLO-UHFFFAOYSA/s0_opt_freq_vac/mol_s0_opt_freq_vac.log	Energy: -1400859.7024441
C         -5.30386       -0.08189       -1.25477
C         -4.41624       -0.00007       -0.00019
C         -5.30386        0.08172        1.25439
C         -3.55722       -1.25725        0.08062
C         -4.17788       -2.50323        0.16326
C         -3.48003       -3.70926        0.25422
C         -2.08411       -3.63869        0.26389
C         -1.43267       -2.42074        0.18158
C         -2.15337       -1.21964        0.08689
N         -1.47059       -0.00002       -0.00046
C         -0.04484       -0.00001       -0.00036
C          0.65207       -0.11823       -1.19996
C          2.04123       -0.11978       -1.19874
C          2.75523       -0.00002       -0.00013
C          2.04103        0.11975        1.19837
C          0.65187        0.11820        1.19936
C          4.23259        0.00000       -0.00001
C          4.95169       -0.82841       -0.86605
C          6.34233       -0.82404       -0.86394
C          7.05407        0.00011        0.00015
C          6.34216        0.82420        0.86418
C          4.95152        0.82846        0.86613
C          7.04933        1.74621        1.81326
F          8.37983        1.64745        1.72935
F          6.72538        3.02904        1.58064
F          6.70652        1.49093        3.08738
C          7.04967       -1.74597       -1.81297
F          6.72573       -3.02883       -1.58045
F          6.70703       -1.49065       -3.08711
F          8.38016       -1.64718       -1.72886
C         -2.15343        1.21957       -0.08763
C         -3.55728        1.25713       -0.08104
C         -4.17799        2.50310       -0.16349
C         -3.48020        3.70915       -0.25452
C         -2.08428        3.63863       -0.26458
C         -1.43278        2.42069       -0.18250
C         -4.18735        5.00185       -0.33930
C         -3.69079        6.03966       -1.13880
C         -4.35137        7.26047       -1.21887
C         -5.52764        7.47012       -0.50335
C         -6.03427        6.44719        0.29433
C         -5.37011        5.22826        0.37685
C         -4.18712       -5.00196        0.33941
C         -5.37017       -5.22851       -0.37621
C         -6.03428       -6.44744       -0.29319
C         -5.52731       -7.47022        0.50447
C         -4.35075       -7.26043        1.21946
C         -3.69022       -6.03962        1.13889
H         -5.94896       -0.96789       -1.22597
H         -4.68774       -0.13856       -2.16006
H         -5.95379        0.79663       -1.34033
H         -5.94898        0.96771        1.22559
H         -4.68774        0.13839        2.15968
H         -5.95380       -0.79679        1.33995
H         -5.26641       -2.54153        0.18421
H         -1.49401       -4.55213        0.30824
H         -0.34641       -2.40239        0.17940
H          0.09242       -0.20125       -2.12961
H          2.57850       -0.18567       -2.14302
H          2.57815        0.18564        2.14273
H          0.09207        0.20123        2.12893
H          4.42203       -1.50433       -1.53553
H          8.13928        0.00015        0.00022
H          4.42174        1.50434        1.53556
H         -5.26652        2.54138       -0.18423
H         -1.49423        4.55209       -0.30909
H         -0.34653        2.40235       -0.18064
H         -2.78832        5.87645       -1.72548
H         -3.95074        8.04883       -1.85231
H         -6.04557        8.42413       -0.56639
H         -6.94662        6.60281        0.86591
H         -5.75799        4.44681        1.02847
H         -5.75834       -4.44719       -1.02780
H         -6.94686       -6.60318       -0.86437
H         -6.04521       -8.42422        0.56790
H         -3.94984       -8.04867        1.85288
H         -2.78752       -5.87629        1.72518
