46
../dihydrophena/verde_crest_run2/XXWKRDLSZRRJDX-UHFFFAOYSA/s0_opt_freq_vac/mol_s0_opt_freq_vac.log	Energy: -764651.0569683
N          8.17145       -0.00002        0.15957
C          7.01049        0.00001        0.09240
C          5.58067        0.00001        0.00994
C          4.81514        0.00001        1.18369
C          3.43110        0.00001        1.09884
C          2.80819        0.00001       -0.15009
C          3.56784       -0.00000       -1.31666
C          4.95509       -0.00000       -1.24162
N          1.38656        0.00000       -0.23985
C          0.70451        1.22303       -0.06683
C         -0.70451        1.22303       -0.06684
C         -1.38450        2.43073        0.06118
C         -0.69190        3.63695        0.18238
C          0.69188        3.63696        0.18239
C          1.38449        2.43074        0.06120
N         -1.38656       -0.00000       -0.23987
C         -2.80819       -0.00000       -0.15010
C         -3.43109       -0.00001        1.09883
C         -4.81513       -0.00001        1.18369
C         -5.58067       -0.00000        0.00994
C         -4.95510        0.00000       -1.24162
C         -3.56784        0.00000       -1.31666
C         -7.01049       -0.00001        0.09241
N         -8.17145       -0.00001        0.15959
C         -0.70451       -1.22303       -0.06684
C          0.70451       -1.22302       -0.06683
C          1.38450       -2.43073        0.06120
C          0.69189       -3.63695        0.18239
C         -0.69188       -3.63695        0.18238
C         -1.38449       -2.43073        0.06118
H          5.31338        0.00002        2.14955
H          2.81589        0.00002        1.99659
H          3.05707       -0.00001       -2.27661
H          5.56005       -0.00001       -2.14437
H         -2.47121        2.43678        0.05491
H         -1.24845        4.56574        0.27352
H          1.24843        4.56574        0.27353
H          2.47120        2.43678        0.05493
H         -2.81588       -0.00001        1.99658
H         -5.31337       -0.00002        2.14955
H         -5.56006        0.00001       -2.14437
H         -3.05708        0.00001       -2.27662
H          2.47121       -2.43677        0.05494
H          1.24845       -4.56574        0.27353
H         -1.24844       -4.56574        0.27352
H         -2.47120       -2.43678        0.05490
