121
../dihydroacridine/verde_crest_run2/YCNNBAMCHCYNNW-UHFFFAOYSA/s0_opt_freq_vac/mol_s0_opt_freq_vac.log	Energy: -1887847.1195158
C        -13.47594       -5.47399       -1.07153
C        -12.57879       -6.12019       -0.00814
C        -13.32441       -6.08759        1.32469
C        -12.32663       -7.58749       -0.37701
C        -11.24824       -5.37510        0.05372
C        -10.43036       -5.31045       -1.08240
C         -9.21510       -4.64168       -1.07085
C         -8.75407       -3.99998        0.08600
C         -9.56461       -4.06221        1.22168
C        -10.78378       -4.73444        1.20466
C         -7.46309       -3.28509        0.10419
C         -6.35595       -3.76661       -0.60483
C         -5.14249       -3.09277       -0.58638
C         -4.98012       -1.90947        0.14521
C         -6.08798       -1.42860        0.85455
C         -7.30240       -2.10017        0.83274
C         -3.69185       -1.19210        0.16436
C         -2.47662       -1.88022        0.14771
C         -1.23283       -1.25037        0.15481
C         -1.20597        0.15349        0.18197
C         -2.41633        0.86462        0.20714
C         -3.63222        0.20423        0.19808
N          0.01188        0.84551        0.18703
C         -0.00051        2.27063        0.14119
C         -0.06182        2.92523       -1.08648
C         -0.08084        4.31304       -1.13338
C         -0.03495        5.06849        0.04507
C          0.03120        4.39718        1.27177
C          0.04645        3.00845        1.32070
C         -0.06070        6.54478       -0.00545
C         -0.86514        7.21666       -0.93000
C         -0.88948        8.60638       -0.97445
C         -0.11802        9.36363       -0.10060
C          0.68237        8.69874        0.82136
C          0.71478        7.30922        0.87057
C          1.55166        9.45706        1.78075
F          2.85145        9.17704        1.58792
F          1.40654       10.78120        1.66806
F          1.27537        9.12886        3.05419
C         -1.78784        9.26192       -1.98154
F         -1.70908       10.59604       -1.94855
F         -1.48629        8.87173       -3.23158
F         -3.07353        8.92970       -1.77770
C          1.23881        0.17191        0.13605
C          2.43804        0.90105        0.09837
C          3.66271        0.25850        0.05494
C          3.74284       -1.13726        0.04906
C          2.53827       -1.84322        0.08456
C          1.28609       -1.23163        0.12549
C          0.03318       -2.09985        0.15776
C          0.02467       -3.01892       -1.07639
C          0.05545       -2.95550        1.43708
C          5.04057       -1.83623        0.00359
C          5.24400       -3.04043        0.68960
C          6.46522       -3.69819        0.64129
C          7.53997       -3.17951       -0.09108
C          7.33863       -1.97365       -0.77376
C          6.11608       -1.31813       -0.72908
C          8.83800       -3.87985       -0.14102
C          9.61024       -3.89909       -1.30471
C         10.83358       -4.56244       -1.35016
C         11.34070       -5.23621       -0.23672
C         10.56188       -5.21298        0.92822
C          9.34285       -4.55350        0.97881
C         12.67623       -5.97488       -0.24421
C         12.44367       -7.45501        0.08425
C         13.37613       -5.89436       -1.59964
C         13.60588       -5.35866        0.80893
H        -13.02226       -5.51087       -2.06903
H        -13.67091       -4.42110       -0.83088
H        -14.44016       -5.99728       -1.12413
H        -12.74867       -6.56527        2.12788
H        -14.27100       -6.63401        1.22842
H        -13.56603       -5.06255        1.63399
H        -13.27669       -8.13677       -0.42163
H        -11.68537       -8.07339        0.36942
H        -11.83848       -7.68722       -1.35369
H        -10.75219       -5.78555       -2.00820
H         -8.62368       -4.59200       -1.98378
H         -9.22639       -3.59958        2.14756
H        -11.37013       -4.75895        2.11957
H         -6.44345       -4.69377       -1.16882
H         -4.30755       -3.48240       -1.16665
H         -5.99094       -0.52026        1.44695
H         -8.14968       -1.68992        1.37961
H         -2.50703       -2.96912        0.15557
H         -2.40614        1.95091        0.22190
H         -4.55066        0.78811        0.18826
H         -0.08852        2.33329       -1.99939
H         -0.10388        4.81766       -2.09749
H          0.04006        4.96689        2.19914
H          0.08607        2.48121        2.27182
H         -1.50073        6.65041       -1.60898
H         -0.14039       10.44793       -0.13689
H          1.37083        6.81614        1.58622
H          2.41243        1.98705        0.11497
H          4.57277        0.85544        0.05397
H          2.58336       -2.93112        0.05266
H          0.91099       -3.66305       -1.10007
H          0.01019       -2.42625       -1.99876
H         -0.85485       -3.67308       -1.07796
H         -0.82365       -3.60827        1.49315
H          0.06182       -2.31640        2.32820
H          0.94668       -3.59362        1.46951
H          4.43588       -3.46039        1.28641
H          6.58434       -4.64224        1.17034
H          8.16008       -1.53461       -1.33745
H          5.98656       -0.39298       -1.28825
H          9.23772       -3.40993       -2.20342
H         11.38863       -4.55374       -2.28468
H         10.91826       -5.71450        1.82700
H          8.78241       -4.53715        1.91221
H         13.39737       -7.99975        0.07901
H         11.78023       -7.91992       -0.65616
H         11.98889       -7.58979        1.07276
H         13.60167       -4.85828       -1.88327
H         12.77600       -6.34935       -2.39814
H         14.32825       -6.43763       -1.55319
H         13.78797       -4.29747        0.59629
H         14.57362       -5.87807        0.81193
H         13.18644       -5.43043        1.81939
