40
../more/verde_crest_run2/ZNPQTVRGXZJHFM-UHFFFAOYSA/s0_opt_freq_vac/mol_s0_opt_freq_vac.log	Energy: -574285.7990602
C          0.85928        3.54750        0.90796
C          0.87257        2.84730       -0.43992
N          0.90504        1.39067       -0.32699
C          2.12024        0.70649       -0.17527
C          2.12024       -0.70649       -0.17527
C          3.33177       -1.38376       -0.03913
C          4.53585       -0.69260        0.07914
C          4.53585        0.69260        0.07914
C          3.33177        1.38376       -0.03913
N          0.90504       -1.39067       -0.32699
C          0.87257       -2.84730       -0.43992
C          0.85928       -3.54750        0.90796
C         -0.29988       -0.72559       -0.20192
N         -1.40681       -1.40575       -0.12540
C         -2.58669       -0.70715       -0.05626
C         -2.58669        0.70715       -0.05626
C         -3.80639        1.39993        0.01931
C         -4.99709        0.70260        0.09512
C         -4.99709       -0.70260        0.09512
C         -3.80639       -1.39993        0.01931
N         -1.40681        1.40575       -0.12540
C         -0.29988        0.72559       -0.20192
H          0.86243        4.63478        0.77377
H          1.72980        3.27591        1.51627
H         -0.04470        3.27519        1.46244
H          1.72869        3.15231       -1.05182
H         -0.03370        3.09743       -0.99873
H          3.34532       -2.46868       -0.02023
H          5.46394       -1.24878        0.17963
H          5.46394        1.24878        0.17963
H          3.34532        2.46868       -0.02023
H          1.72869       -3.15231       -1.05182
H         -0.03370       -3.09743       -0.99874
H          0.86243       -4.63478        0.77377
H         -0.04470       -3.27519        1.46243
H          1.72979       -3.27591        1.51627
H         -3.77851        2.48736        0.01654
H         -5.93887        1.24302        0.15462
H         -5.93887       -1.24301        0.15462
H         -3.77851       -2.48736        0.01654
