54
../more/verde_crest_run2/ZPZQUULZYNWJNV-UHFFFAOYSA/s0_opt_freq_vac/mol_s0_opt_freq_vac.log	Energy: -1188327.0785475
F         -7.51641       -1.62114        0.81210
C         -7.07740       -0.51832        0.17924
F         -7.68582       -0.47632       -1.01215
F         -7.52299        0.53019        0.89261
C         -5.58315       -0.51119        0.06643
C         -4.95251       -0.44826       -1.17181
C         -3.56276       -0.44665       -1.23335
C         -2.82161       -0.50843       -0.06051
C         -3.45168       -0.56651        1.17956
C         -4.83710       -0.56881        1.24389
N         -1.39209       -0.52478       -0.12135
C         -0.70406       -1.75296       -0.15852
C          0.70406       -1.75296       -0.15853
C          1.38729       -2.96607       -0.19690
C          0.69334       -4.17367       -0.23303
C         -0.69335       -4.17367       -0.23302
C         -1.38730       -2.96607       -0.19689
N          1.39209       -0.52478       -0.12136
C          2.82161       -0.50844       -0.06051
C          3.45168       -0.56651        1.17955
C          4.83709       -0.56882        1.24388
C          5.58315       -0.51119        0.06643
C          4.95251       -0.44827       -1.17181
C          3.56276       -0.44665       -1.23336
C          7.07740       -0.51833        0.17924
F          7.68582       -0.47634       -1.01215
F          7.52299        0.53019        0.89261
F          7.51641       -1.62113        0.81211
C          0.72392        0.69200       -0.11432
N          1.40582        1.79621       -0.09714
C          0.70775        2.97786       -0.08207
C         -0.70774        2.97786       -0.08208
C         -1.40190        4.19918       -0.06436
C         -0.70301        5.39044       -0.04802
C          0.70302        5.39044       -0.04802
C          1.40190        4.19918       -0.06435
N         -1.40582        1.79621       -0.09715
C         -0.72392        0.69200       -0.11432
H         -5.54242       -0.40008       -2.08223
H         -3.04466       -0.39410       -2.18806
H         -2.84669       -0.60917        2.08235
H         -5.34521       -0.61408        2.20453
H          2.47390       -2.96587       -0.19785
H          1.24789       -5.10753       -0.26132
H         -1.24789       -5.10753       -0.26131
H         -2.47390       -2.96586       -0.19784
H          2.84668       -0.60918        2.08234
H          5.34521       -0.61410        2.20453
H          5.54242       -0.40008       -2.08224
H          3.04466       -0.39410       -2.18806
H         -2.48907        4.17037       -0.06377
H         -1.24237        6.33446       -0.03463
H          1.24238        6.33445       -0.03462
H          2.48908        4.17037       -0.06374
