116
../more/verde_crest_run2/ZVNURSBOOLSPRS-UHFFFAOYSA/s0_opt_freq_vac/mol_s0_opt_freq_vac.log	Energy: -1381699.5087580
C         -4.82703        6.14653        1.00239
C         -5.57343        4.88458        1.43135
C         -5.74369        4.92790        2.95518
C         -6.95469        4.89942        0.76456
C         -4.83014        3.61180        1.03588
C         -5.36932        2.35683        1.35358
C         -4.73028        1.17270        1.02145
C         -3.51332        1.19393        0.32654
C         -2.95984        2.43398        0.00591
C         -3.60797        3.61448        0.36239
N         -2.83435        0.00006        0.00000
C         -3.51330       -1.19385       -0.32649
C         -2.95986       -2.43387       -0.00572
C         -3.60795       -3.61440       -0.36219
C         -4.83006       -3.61174       -1.03580
C         -5.36922       -2.35680       -1.35363
C         -4.73020       -1.17265       -1.02151
C         -5.57329       -4.88455       -1.43129
C         -4.82696       -6.14648       -1.00214
C         -6.95465       -4.89936       -0.76469
C         -5.74334       -4.92796       -2.95514
C         -1.40954        0.00006       -0.00005
C         -0.71819        0.01206       -1.22297
C         -1.40185        0.05486       -2.47358
C         -0.70947        0.03567       -3.65144
C          0.70919       -0.03554       -3.65149
C          1.40166       -0.05476       -2.47369
C          0.71810       -0.01198       -1.22303
C          1.40954        0.00000       -0.00015
N          2.83435       -0.00006       -0.00022
C          3.51334        1.19385       -0.32665
C          2.95996        2.43388       -0.00582
C          3.60812        3.61439       -0.36221
C          4.83023        3.61171       -1.03581
C          5.36932        2.35676       -1.35372
C          4.73024        1.17263       -1.02168
C          5.57355        4.88451       -1.43119
C          4.82725        6.14645       -1.00201
C          6.95486        4.89920       -0.76451
C          5.74368        4.92800       -2.95503
C          3.51328       -1.19394        0.32638
C          4.73024       -1.17273        1.02129
C          5.36922       -2.35687        1.35349
C          4.82997       -3.61183        1.03587
C          3.60780       -3.61449        0.36237
C          2.95974       -2.43397        0.00581
C          5.57317       -4.88463        1.43145
C          5.74335       -4.92786        2.95529
C          4.82673       -6.14656        1.00252
C          6.95447       -4.89958        0.76474
C          0.71819        0.01202        1.22277
C         -0.71810       -0.01194        1.22283
C         -1.40166       -0.05468        2.47349
C         -0.70919       -0.03550        3.65129
C          0.70947        0.03562        3.65124
C          1.40185        0.05478        2.47338
H         -3.83747        6.21625        1.47222
H         -5.39907        7.03238        1.30585
H         -4.69731        6.19477       -0.08655
H         -4.76763        4.92001        3.45694
H         -6.31881        4.07208        3.32843
H         -6.27520        5.84169        3.25377
H         -7.50072        5.81262        1.03771
H         -7.56628        4.04203        1.07005
H         -6.86033        4.87108       -0.32859
H         -6.31337        2.29456        1.89362
H         -5.17120        0.21919        1.30607
H         -2.01120        2.47884       -0.52551
H         -3.13465        4.55429        0.08971
H         -2.01126       -2.47870        0.52578
H         -3.13466       -4.55419       -0.08942
H         -6.31322       -2.29456       -1.89375
H         -5.17110       -0.21915       -1.30621
H         -4.69738       -6.19465        0.08682
H         -3.83733       -6.21623       -1.47184
H         -5.39895       -7.03235       -1.30563
H         -6.86044       -4.87095        0.32847
H         -7.50063       -5.81258       -1.03786
H         -7.56620       -4.04198       -1.07031
H         -6.27481       -5.84178       -3.25375
H         -4.76722       -4.92011       -3.45677
H         -6.31842       -4.07217       -3.32852
H         -2.48841        0.10428       -2.47167
H         -1.24585        0.07060       -4.59664
H          1.24550       -0.07045       -4.59674
H          2.48822       -0.10418       -2.47187
H          2.01136        2.47872        0.52568
H          3.13488        4.55419       -0.08939
H          6.31332        2.29451       -1.89384
H          5.17108        0.21912       -1.30643
H          5.39931        7.03231       -1.30543
H          4.69764        6.19456        0.08695
H          3.83765        6.21627       -1.47174
H          7.50092        5.81240       -1.03760
H          7.56638        4.04181       -1.07016
H          6.86060        4.87073        0.32864
H          4.76758        4.92022       -3.45671
H          6.31873        4.07220       -3.32843
H          6.27521        5.84181       -3.25355
H          5.17122       -0.21922        1.30584
H          6.31327       -2.29461        1.89353
H          3.13444       -4.55429        0.08975
H          2.01110       -2.47882       -0.52560
H          6.27480       -5.84166        3.25396
H          4.76727       -4.91990        3.45700
H          6.31850       -4.07204        3.32851
H          3.83715       -6.21621        1.47232
H          5.39872       -7.03243        1.30606
H          4.69705       -6.19485       -0.08642
H          6.86017       -4.87130       -0.32843
H          7.50043       -5.81280        1.03797
H          7.56609       -4.04220        1.07020
H         -2.48823       -0.10403        2.47167
H         -1.24550       -0.07037        4.59655
H          1.24586        0.07051        4.59645
H          2.48842        0.10413        2.47148
