29
../more/verde_crest_run2/AENVNKCHSWUVSH-UHFFFAOYSA/s0_opt_freq_vac/mol_s0_opt_freq_vac.log	Energy: -504390.8418429
O          0.72423        3.30362        0.00038
C          0.94690        2.11919        0.00003
O          2.25003        1.70924        0.00014
C          2.62457        0.39151        0.00006
C          1.69454       -0.65341       -0.00007
C          2.19755       -1.96270       -0.00016
C          3.56002       -2.21192       -0.00012
C          4.46401       -1.14662        0.00000
C          3.99618        0.15782        0.00010
C          0.27394       -0.31728       -0.00007
C         -0.74056       -1.25538       -0.00012
C         -2.09908       -0.87765       -0.00009
C         -2.44047        0.50945       -0.00000
C         -3.80711        0.88805        0.00003
C         -4.79479       -0.06323       -0.00002
C         -4.45804       -1.43834       -0.00010
C         -3.14511       -1.83603       -0.00014
C         -1.40139        1.45792        0.00005
C         -0.08020        1.06342        0.00001
H          1.50504       -2.80092       -0.00025
H          3.92228       -3.23645       -0.00019
H          5.53428       -1.33576        0.00003
H          4.66677        1.01276        0.00020
H         -0.50991       -2.31925       -0.00017
H         -4.05374        1.94835        0.00009
H         -5.84038        0.23407        0.00000
H         -5.25000       -2.18350       -0.00014
H         -2.88627       -2.89368       -0.00020
H         -1.62802        2.52264        0.00011
